\ SCIP STATISTICS
\   Problem name     : BMP
\   Variables        : 113 (36 binary, 0 integer, 0 implicit integer, 77 continuous)
\   Constraints      : 154
Minimize
 Obj: -61.3333333333331 x_(0, 1) -72.6666666666669 x_(0, 2) -57.3333333333335 x_(0, 3) -57.3333333333335 x_(0, 4)
      -72.6666666666669 x_(1, 2) -57.3333333333335 x_(1, 3) -57.3333333333335 x_(1, 4) -57.3333333333335 x_(2, 3)
      -72.6666666666669 x_(3, 2) -57.3333333333335 x_(3, 4) -61.3333333333331 x_(4, 1) -72.6666666666669 x_(4, 2)
      -57.3333333333335 x_(4, 3) -57.3333333333335 x_(5, 4) -61.3333333333331 x_(5, 1) -145.333333333334 x_(5, 2)
      -72.6666666666669 x_(6, 2) -57.3333333333335 x_(6, 3) -114.666666666667 x_(6, 4) +1 phi
Subject to
 conserv1: +1 x_(0, 1) +1 x_(0, 2) +1 x_(0, 3) +1 x_(0, 4) +1 x_(0, 5) +1 x_(0, 6) -1 x_(1, 7) -1 x_(2, 7)
  -1 x_(3, 7) -1 x_(4, 7) -1 x_(5, 7) -1 x_(6, 7) = +0
 conserv2_1: +1 x_(1, 7) +1 x_(1, 2) +1 x_(1, 3) +1 x_(1, 4) +1 x_(1, 6) -1 x_(0, 1) -1 x_(4, 1) -1 x_(5, 1)
  = +0
 conserv2_2: +1 x_(2, 7) +1 x_(2, 3) -1 x_(0, 2) -2 x_(5, 2) -1 x_(6, 2) -1 x_(1, 2) -1 x_(3, 2) -1 x_(4, 2)
  = +0
 conserv2_3: +1 x_(3, 7) +1 x_(3, 2) +1 x_(3, 5) +1 x_(3, 6) +1 x_(3, 4) -1 x_(0, 3) -1 x_(6, 3) -1 x_(1, 3)
  -1 x_(4, 3) -1 x_(2, 3) = +0
 conserv2_4: +1 x_(4, 7) +1 x_(4, 1) +1 x_(4, 2) +1 x_(4, 3) +1 x_(4, 5) +1 x_(4, 6) -1 x_(0, 4) -1 x_(5, 4)
  -2 x_(6, 4) -1 x_(1, 4) -1 x_(3, 4) = +0
 conserv2_5: +1 x_(5, 7) +2 x_(5, 2) +1 x_(5, 4) +1 x_(5, 1) +1 x_(5, 6) -1 x_(0, 5) -1 x_(3, 5) -1 x_(4, 5)
  -1 x_(6, 5) = +0
 conserv2_6: +1 x_(6, 7) +1 x_(6, 2) +1 x_(6, 3) +2 x_(6, 4) +1 x_(6, 5) -1 x_(0, 6) -1 x_(1, 6) -1 x_(3, 6)
  -1 x_(4, 6) -1 x_(5, 6) = +0
 conserv3: +1 x_(0, 1) +1 x_(0, 2) +1 x_(0, 3) +1 x_(0, 4) +1 x_(0, 5) +1 x_(0, 6) = +1
 payload_1: +1 wk_1 -1 wk_0 -10000 x_(0, 1) >= -9995.05675781269
 payload_1: +1 wk_1 -1 wk_4 -10000 x_(4, 1) >= -9995.05675781269
 payload_1: +1 wk_1 -1 wk_5 -10000 x_(5, 1) >= -9995.05675781269
 payload_2: +1 wk_2 -1 wk_0 -10000 x_(0, 2) >= -9996.87883271163
 payload_2: +1 wk_2 -1 wk_5 -10000 x_(5, 2) >= -9996.87883271163
 payload_2: +1 wk_2 -1 wk_6 -10000 x_(6, 2) >= -9996.87883271163
 payload_2: +1 wk_2 -1 wk_1 -10000 x_(1, 2) >= -9996.87883271163
 payload_2: +1 wk_2 -1 wk_3 -10000 x_(3, 2) >= -9996.87883271163
 payload_2: +1 wk_2 -1 wk_4 -10000 x_(4, 2) >= -9996.87883271163
 payload_2: +1 wk_2 -1 wk_5 -10000 x_(5, 2) >= -9996.87883271163
 payload_3: +1 wk_3 -1 wk_0 -10000 x_(0, 3) >= -9996.94309651306
 payload_3: +1 wk_3 -1 wk_6 -10000 x_(6, 3) >= -9996.94309651306
 payload_3: +1 wk_3 -1 wk_1 -10000 x_(1, 3) >= -9996.94309651306
 payload_3: +1 wk_3 -1 wk_4 -10000 x_(4, 3) >= -9996.94309651306
 payload_3: +1 wk_3 -1 wk_2 -10000 x_(2, 3) >= -9996.94309651306
 payload_4: +1 wk_4 -1 wk_0 -10000 x_(0, 4) >= -9997.23917894641
 payload_4: +1 wk_4 -1 wk_5 -10000 x_(5, 4) >= -9997.23917894641
 payload_4: +1 wk_4 -1 wk_6 -10000 x_(6, 4) >= -9997.23917894641
 payload_4: +1 wk_4 -1 wk_1 -10000 x_(1, 4) >= -9997.23917894641
 payload_4: +1 wk_4 -1 wk_6 -10000 x_(6, 4) >= -9997.23917894641
 payload_4: +1 wk_4 -1 wk_3 -10000 x_(3, 4) >= -9997.23917894641
 payload_5: +1 wk_5 -1 wk_0 -10000 x_(0, 5) >= -9999
 payload_5: +1 wk_5 -1 wk_3 -10000 x_(3, 5) >= -9999
 payload_5: +1 wk_5 -1 wk_4 -10000 x_(4, 5) >= -9999
 payload_5: +1 wk_5 -1 wk_6 -10000 x_(6, 5) >= -9999
 payload_6: +1 wk_6 -1 wk_0 -10000 x_(0, 6) >= -9999
 payload_6: +1 wk_6 -1 wk_1 -10000 x_(1, 6) >= -9999
 payload_6: +1 wk_6 -1 wk_3 -10000 x_(3, 6) >= -9999
 payload_6: +1 wk_6 -1 wk_4 -10000 x_(4, 6) >= -9999
 payload_6: +1 wk_6 -1 wk_5 -10000 x_(5, 6) >= -9999
 servonce_1: +1 x_(0, 1) +1 x_(4, 1) +1 x_(5, 1) +1 y_(5, 1, 0) +1 y_(5, 1, 1) +1 y_(6, 1, 0) +1 y_(6, 1, 1)
  <= +1
 servonce_2: +1 x_(0, 2) +2 x_(5, 2) +1 x_(6, 2) +1 x_(1, 2) +1 x_(3, 2) +1 x_(4, 2) +1 y_(5, 2, 0) +1 y_(5, 2, 1)
  +1 y_(6, 2, 0) +1 y_(6, 2, 1) <= +1
 servonce_3: +1 x_(0, 3) +1 x_(6, 3) +1 x_(1, 3) +1 x_(4, 3) +1 x_(2, 3) +1 y_(5, 3, 0) +1 y_(5, 3, 1)
  +1 y_(6, 3, 0) +1 y_(6, 3, 1) <= +1
 servonce_4: +1 x_(0, 4) +1 x_(5, 4) +2 x_(6, 4) +1 x_(1, 4) +1 x_(3, 4) +1 y_(5, 4, 0) +1 y_(5, 4, 1)
  +1 y_(6, 4, 0) +1 y_(6, 4, 1) <= +1
 drone_launch_5: +1 y_(5, 1, 0) +1 y_(5, 2, 0) +1 y_(5, 3, 0) +1 y_(5, 4, 0) +1 y_(5, 1, 1) +1 y_(5, 2, 1)
  +1 y_(5, 3, 1) +1 y_(5, 4, 1) -2 x_(0, 5) -2 x_(3, 5) -2 x_(4, 5) -2 x_(6, 5) <= +0
 drone_launch_6: +1 y_(6, 1, 0) +1 y_(6, 2, 0) +1 y_(6, 3, 0) +1 y_(6, 4, 0) +1 y_(6, 1, 1) +1 y_(6, 2, 1)
  +1 y_(6, 3, 1) +1 y_(6, 4, 1) -2 x_(0, 6) -2 x_(1, 6) -2 x_(3, 6) -2 x_(4, 6) -2 x_(5, 6) <= +0
 wait1_(5, 1): +1 t_5 -12 y_(5, 1, 0) -12 y_(5, 1, 1) >= +0
 wait1_(5, 2): +1 t_5 -14 y_(5, 2, 0) -14 y_(5, 2, 1) >= +0
 wait1_(5, 3): +1 t_5 -4 y_(5, 3, 0) -4 y_(5, 3, 1) >= +0
 wait1_(5, 4): +1 t_5 -4 y_(5, 4, 0) -4 y_(5, 4, 1) >= +0
 wait1_(6, 1): +1 t_6 -16 y_(6, 1, 0) -16 y_(6, 1, 1) >= +0
 wait1_(6, 2): +1 t_6 -6 y_(6, 2, 0) -6 y_(6, 2, 1) >= +0
 wait1_(6, 3): +1 t_6 -4 y_(6, 3, 0) -4 y_(6, 3, 1) >= +0
 wait1_(6, 4): +1 t_6 -6 y_(6, 4, 0) -6 y_(6, 4, 1) >= +0
 wait2_0: +1 t_0 <= +0
 wait2_1: +1 t_1 <= +0
 wait2_2: +1 t_2 <= +0
 wait2_3: +1 t_3 <= +0
 wait2_4: +1 t_4 <= +0
 wait2_7: +1 t_7 <= +0
 realized1: +1 ak_0 +1 ad_(0, 0) +1 ad_(0, 1) <= +0
 realized2_1: +1 a_1 -1 ak_1 >= +0
 realized2_2: +1 a_2 -1 ak_2 >= +0
 realized2_3: +1 a_3 -1 ak_3 >= +0
 realized2_4: +1 a_4 -1 ak_4 >= +0
 realized3_(1, 0): +1 a_1 -1 ad_(1, 0) >= +0
 realized3_(1, 1): +1 a_1 -1 ad_(1, 1) >= +0
 realized3_(2, 0): +1 a_2 -1 ad_(2, 0) >= +0
 realized3_(2, 1): +1 a_2 -1 ad_(2, 1) >= +0
 realized3_(3, 0): +1 a_3 -1 ad_(3, 0) >= +0
 realized3_(3, 1): +1 a_3 -1 ad_(3, 1) >= +0
 realized3_(4, 0): +1 a_4 -1 ad_(4, 0) >= +0
 realized3_(4, 1): +1 a_4 -1 ad_(4, 1) >= +0
 realized4_(0, 1): +1 ak_1 -1 ak_0 -1 t_0 -10040 x_(0, 1) >= -10000
 realized4_(4, 1): +1 ak_1 -1 ak_4 -1 t_4 -10030 x_(4, 1) >= -10000
 realized4_(5, 1): +1 ak_1 -1 ak_5 -1 t_5 -10025 x_(5, 1) >= -10000
 realized4_(0, 2): +1 ak_2 -1 ak_0 -1 t_0 -10021 x_(0, 2) >= -10000
 realized4_(5, 2): +1 ak_2 -1 ak_5 -1 t_5 -10033 x_(5, 2) >= -10000
 realized4_(6, 2): +1 ak_2 -1 ak_6 -1 t_6 -10023 x_(6, 2) >= -10000
 realized4_(1, 2): +1 ak_2 -1 ak_1 -1 t_1 -10036 x_(1, 2) >= -10000
 realized4_(3, 2): +1 ak_2 -1 ak_3 -1 t_3 -10024 x_(3, 2) >= -10000
 realized4_(4, 2): +1 ak_2 -1 ak_4 -1 t_4 -10046 x_(4, 2) >= -10000
 realized4_(5, 2): +1 ak_2 -1 ak_5 -1 t_5 -10033 x_(5, 2) >= -10000
 realized4_(0, 3): +1 ak_3 -1 ak_0 -1 t_0 -10047 x_(0, 3) >= -10000
 realized4_(6, 3): +1 ak_3 -1 ak_6 -1 t_6 -10039 x_(6, 3) >= -10000
 realized4_(1, 3): +1 ak_3 -1 ak_1 -1 t_1 -10032 x_(1, 3) >= -10000
 realized4_(4, 3): +1 ak_3 -1 ak_4 -1 t_4 -10036 x_(4, 3) >= -10000
 realized4_(2, 3): +1 ak_3 -1 ak_2 -1 t_2 -10031 x_(2, 3) >= -10000
 realized4_(0, 4): +1 ak_4 -1 ak_0 -1 t_0 -10029 x_(0, 4) >= -10000
 realized4_(5, 4): +1 ak_4 -1 ak_5 -1 t_5 -10043 x_(5, 4) >= -10000
 realized4_(6, 4): +1 ak_4 -1 ak_6 -1 t_6 -10039 x_(6, 4) >= -10000
 realized4_(1, 4): +1 ak_4 -1 ak_1 -1 t_1 -10039 x_(1, 4) >= -10000
 realized4_(6, 4): +1 ak_4 -1 ak_6 -1 t_6 -10039 x_(6, 4) >= -10000
 realized4_(3, 4): +1 ak_4 -1 ak_3 -1 t_3 -10023 x_(3, 4) >= -10000
 realized4_(0, 5): +1 ak_5 -1 ak_0 -1 t_0 -10022 x_(0, 5) >= -10000
 realized4_(3, 5): +1 ak_5 -1 ak_3 -1 t_3 -10011 x_(3, 5) >= -10000
 realized4_(4, 5): +1 ak_5 -1 ak_4 -1 t_4 -10031 x_(4, 5) >= -10000
 realized4_(6, 5): +1 ak_5 -1 ak_6 -1 t_6 -10018 x_(6, 5) >= -10000
 realized4_(0, 6): +1 ak_6 -1 ak_0 -1 t_0 -10036 x_(0, 6) >= -10000
 realized4_(1, 6): +1 ak_6 -1 ak_1 -1 t_1 -10030 x_(1, 6) >= -10000
 realized4_(3, 6): +1 ak_6 -1 ak_3 -1 t_3 -10026 x_(3, 6) >= -10000
 realized4_(4, 6): +1 ak_6 -1 ak_4 -1 t_4 -10048 x_(4, 6) >= -10000
 realized4_(5, 6): +1 ak_6 -1 ak_5 -1 t_5 -10050 x_(5, 6) >= -10000
 realized4_(1, 7): +1 ak_7 -1 ak_1 -1 t_1 -10026 x_(1, 7) >= -10000
 realized4_(2, 7): +1 ak_7 -1 ak_2 -1 t_2 -10044 x_(2, 7) >= -10000
 realized4_(3, 7): +1 ak_7 -1 ak_3 -1 t_3 -10025 x_(3, 7) >= -10000
 realized4_(4, 7): +1 ak_7 -1 ak_4 -1 t_4 -10050 x_(4, 7) >= -10000
 realized4_(5, 7): +1 ak_7 -1 ak_5 -1 t_5 -10041 x_(5, 7) >= -10000
 realized4_(6, 7): +1 ak_7 -1 ak_6 -1 t_6 -10032 x_(6, 7) >= -10000
 realized5_(5, 1, 0): +1 ad_(1, 0) -1 ak_5 -10006 y_(5, 1, 0) >= -10000
 realized5_(5, 1, 1): +1 ad_(1, 1) -1 ak_5 -10006 y_(5, 1, 1) >= -10000
 realized5_(5, 2, 0): +1 ad_(2, 0) -1 ak_5 -10007 y_(5, 2, 0) >= -10000
 realized5_(5, 2, 1): +1 ad_(2, 1) -1 ak_5 -10007 y_(5, 2, 1) >= -10000
 realized5_(5, 3, 0): +1 ad_(3, 0) -1 ak_5 -10002 y_(5, 3, 0) >= -10000
 realized5_(5, 3, 1): +1 ad_(3, 1) -1 ak_5 -10002 y_(5, 3, 1) >= -10000
 realized5_(5, 4, 0): +1 ad_(4, 0) -1 ak_5 -10002 y_(5, 4, 0) >= -10000
 realized5_(5, 4, 1): +1 ad_(4, 1) -1 ak_5 -10002 y_(5, 4, 1) >= -10000
 realized5_(6, 1, 0): +1 ad_(1, 0) -1 ak_6 -10008 y_(6, 1, 0) >= -10000
 realized5_(6, 1, 1): +1 ad_(1, 1) -1 ak_6 -10008 y_(6, 1, 1) >= -10000
 realized5_(6, 2, 0): +1 ad_(2, 0) -1 ak_6 -10003 y_(6, 2, 0) >= -10000
 realized5_(6, 2, 1): +1 ad_(2, 1) -1 ak_6 -10003 y_(6, 2, 1) >= -10000
 realized5_(6, 3, 0): +1 ad_(3, 0) -1 ak_6 -10002 y_(6, 3, 0) >= -10000
 realized5_(6, 3, 1): +1 ad_(3, 1) -1 ak_6 -10002 y_(6, 3, 1) >= -10000
 realized5_(6, 4, 0): +1 ad_(4, 0) -1 ak_6 -10003 y_(6, 4, 0) >= -10000
 realized5_(6, 4, 1): +1 ad_(4, 1) -1 ak_6 -10003 y_(6, 4, 1) >= -10000
 Lshaped_0: +1 phi -1042.66666666667 x_(0, 6) -1042.66666666667 x_(5, 7) -1042.66666666667 x_(6, 5) +1042.66666666667 x_(0, 1)
  +1042.66666666667 x_(0, 2) +1042.66666666667 x_(0, 3) +1042.66666666667 x_(0, 4) +1042.66666666667 x_(0, 5)
  +1042.66666666667 x_(1, 7) +1042.66666666667 x_(1, 2) +1042.66666666667 x_(1, 3) +1042.66666666667 x_(1, 4)
  +1042.66666666667 x_(1, 6) +1042.66666666667 x_(2, 7) +1042.66666666667 x_(2, 3) +1042.66666666667 x_(3, 7)
  +1042.66666666667 x_(3, 2) +1042.66666666667 x_(3, 5) +1042.66666666667 x_(3, 6) +1042.66666666667 x_(3, 4)
  +1042.66666666667 x_(4, 7) +1042.66666666667 x_(4, 1) +1042.66666666667 x_(4, 2) +1042.66666666667 x_(4, 3)
  +1042.66666666667 x_(4, 5) +1042.66666666667 x_(4, 6) +1042.66666666667 x_(5, 2) +1042.66666666667 x_(5, 4)
  +1042.66666666667 x_(5, 1) +1042.66666666667 x_(5, 6) +1042.66666666667 x_(6, 7) +1042.66666666667 x_(6, 2)
  +1042.66666666667 x_(6, 3) +1042.66666666667 x_(6, 4) >= -3080
 Lshaped_1: +1 phi -1035.66666666667 x_(0, 5) -1035.66666666667 x_(5, 6) -1035.66666666667 x_(6, 7) +1035.66666666667 x_(0, 1)
  +1035.66666666667 x_(0, 2) +1035.66666666667 x_(0, 3) +1035.66666666667 x_(0, 4) +1035.66666666667 x_(0, 6)
  +1035.66666666667 x_(1, 7) +1035.66666666667 x_(1, 2) +1035.66666666667 x_(1, 3) +1035.66666666667 x_(1, 4)
  +1035.66666666667 x_(1, 6) +1035.66666666667 x_(2, 7) +1035.66666666667 x_(2, 3) +1035.66666666667 x_(3, 7)
  +1035.66666666667 x_(3, 2) +1035.66666666667 x_(3, 5) +1035.66666666667 x_(3, 6) +1035.66666666667 x_(3, 4)
  +1035.66666666667 x_(4, 7) +1035.66666666667 x_(4, 1) +1035.66666666667 x_(4, 2) +1035.66666666667 x_(4, 3)
  +1035.66666666667 x_(4, 5) +1035.66666666667 x_(4, 6) +1035.66666666667 x_(5, 7) +1035.66666666667 x_(5, 2)
  +1035.66666666667 x_(5, 4) +1035.66666666667 x_(5, 1) +1035.66666666667 x_(6, 2) +1035.66666666667 x_(6, 3)
  +1035.66666666667 x_(6, 4) +1035.66666666667 x_(6, 5) >= -3066
 Lshaped_2: +1 phi -1092 x_(0, 5) -1092 x_(1, 6) -1092 x_(5, 1) -1092 x_(6, 7) +1092 x_(0, 1) +1092 x_(0, 2)
  +1092 x_(0, 3) +1092 x_(0, 4) +1092 x_(0, 6) +1092 x_(1, 7) +1092 x_(1, 2) +1092 x_(1, 3) +1092 x_(1, 4)
  +1092 x_(2, 7) +1092 x_(2, 3) +1092 x_(3, 7) +1092 x_(3, 2) +1092 x_(3, 5) +1092 x_(3, 6) +1092 x_(3, 4)
  +1092 x_(4, 7) +1092 x_(4, 1) +1092 x_(4, 2) +1092 x_(4, 3) +1092 x_(4, 5) +1092 x_(4, 6) +1092 x_(5, 7)
  +1092 x_(5, 2) +1092 x_(5, 4) +1092 x_(5, 6) +1092 x_(6, 2) +1092 x_(6, 3) +1092 x_(6, 4) +1092 x_(6, 5)
  >= -4270.66666666667
 Lshaped_3: +1 phi -1163.66666666667 x_(0, 1) -1163.66666666667 x_(1, 6) -1163.66666666667 x_(5, 7) -1163.66666666667 x_(6, 5)
  +1163.66666666667 x_(0, 2) +1163.66666666667 x_(0, 3) +1163.66666666667 x_(0, 4) +1163.66666666667 x_(0, 5)
  +1163.66666666667 x_(0, 6) +1163.66666666667 x_(1, 7) +1163.66666666667 x_(1, 2) +1163.66666666667 x_(1, 3)
  +1163.66666666667 x_(1, 4) +1163.66666666667 x_(2, 7) +1163.66666666667 x_(2, 3) +1163.66666666667 x_(3, 7)
  +1163.66666666667 x_(3, 2) +1163.66666666667 x_(3, 5) +1163.66666666667 x_(3, 6) +1163.66666666667 x_(3, 4)
  +1163.66666666667 x_(4, 7) +1163.66666666667 x_(4, 1) +1163.66666666667 x_(4, 2) +1163.66666666667 x_(4, 3)
  +1163.66666666667 x_(4, 5) +1163.66666666667 x_(4, 6) +1163.66666666667 x_(5, 2) +1163.66666666667 x_(5, 4)
  +1163.66666666667 x_(5, 1) +1163.66666666667 x_(5, 6) +1163.66666666667 x_(6, 7) +1163.66666666667 x_(6, 2)
  +1163.66666666667 x_(6, 3) +1163.66666666667 x_(6, 4) >= -4485.66666666667
 Lshaped_4: +1 phi -1159.66666666667 x_(0, 4) -1159.66666666667 x_(4, 6) -1159.66666666667 x_(5, 7) -1159.66666666667 x_(6, 5)
  +1159.66666666667 x_(0, 1) +1159.66666666667 x_(0, 2) +1159.66666666667 x_(0, 3) +1159.66666666667 x_(0, 5)
  +1159.66666666667 x_(0, 6) +1159.66666666667 x_(1, 7) +1159.66666666667 x_(1, 2) +1159.66666666667 x_(1, 3)
  +1159.66666666667 x_(1, 4) +1159.66666666667 x_(1, 6) +1159.66666666667 x_(2, 7) +1159.66666666667 x_(2, 3)
  +1159.66666666667 x_(3, 7) +1159.66666666667 x_(3, 2) +1159.66666666667 x_(3, 5) +1159.66666666667 x_(3, 6)
  +1159.66666666667 x_(3, 4) +1159.66666666667 x_(4, 7) +1159.66666666667 x_(4, 1) +1159.66666666667 x_(4, 2)
  +1159.66666666667 x_(4, 3) +1159.66666666667 x_(4, 5) +1159.66666666667 x_(5, 2) +1159.66666666667 x_(5, 4)
  +1159.66666666667 x_(5, 1) +1159.66666666667 x_(5, 6) +1159.66666666667 x_(6, 7) +1159.66666666667 x_(6, 2)
  +1159.66666666667 x_(6, 3) +1159.66666666667 x_(6, 4) >= -4473.66666666667
 Lshaped_5: +1 phi -1165.66666666667 x_(0, 4) -1165.66666666667 x_(4, 5) -1165.66666666667 x_(5, 6) -1165.66666666667 x_(6, 7)
  +1165.66666666667 x_(0, 1) +1165.66666666667 x_(0, 2) +1165.66666666667 x_(0, 3) +1165.66666666667 x_(0, 5)
  +1165.66666666667 x_(0, 6) +1165.66666666667 x_(1, 7) +1165.66666666667 x_(1, 2) +1165.66666666667 x_(1, 3)
  +1165.66666666667 x_(1, 4) +1165.66666666667 x_(1, 6) +1165.66666666667 x_(2, 7) +1165.66666666667 x_(2, 3)
  +1165.66666666667 x_(3, 7) +1165.66666666667 x_(3, 2) +1165.66666666667 x_(3, 5) +1165.66666666667 x_(3, 6)
  +1165.66666666667 x_(3, 4) +1165.66666666667 x_(4, 7) +1165.66666666667 x_(4, 1) +1165.66666666667 x_(4, 2)
  +1165.66666666667 x_(4, 3) +1165.66666666667 x_(4, 6) +1165.66666666667 x_(5, 7) +1165.66666666667 x_(5, 2)
  +1165.66666666667 x_(5, 4) +1165.66666666667 x_(5, 1) +1165.66666666667 x_(6, 2) +1165.66666666667 x_(6, 3)
  +1165.66666666667 x_(6, 4) +1165.66666666667 x_(6, 5) >= -4491.66666666667
 Lshaped_6: +1 phi -1171.66666666667 x_(0, 2) -1171.66666666667 x_(2, 3) -1171.66666666667 x_(3, 5) -1171.66666666667 x_(5, 7)
  +1171.66666666667 x_(0, 1) +1171.66666666667 x_(0, 3) +1171.66666666667 x_(0, 4) +1171.66666666667 x_(0, 5)
  +1171.66666666667 x_(0, 6) +1171.66666666667 x_(1, 7) +1171.66666666667 x_(1, 2) +1171.66666666667 x_(1, 3)
  +1171.66666666667 x_(1, 4) +1171.66666666667 x_(1, 6) +1171.66666666667 x_(2, 7) +1171.66666666667 x_(3, 7)
  +1171.66666666667 x_(3, 2) +1171.66666666667 x_(3, 6) +1171.66666666667 x_(3, 4) +1171.66666666667 x_(4, 7)
  +1171.66666666667 x_(4, 1) +1171.66666666667 x_(4, 2) +1171.66666666667 x_(4, 3) +1171.66666666667 x_(4, 5)
  +1171.66666666667 x_(4, 6) +1171.66666666667 x_(5, 2) +1171.66666666667 x_(5, 4) +1171.66666666667 x_(5, 1)
  +1171.66666666667 x_(5, 6) +1171.66666666667 x_(6, 7) +1171.66666666667 x_(6, 2) +1171.66666666667 x_(6, 3)
  +1171.66666666667 x_(6, 4) +1171.66666666667 x_(6, 5) >= -4509.66666666667
 Lshaped_7: +1 phi -1015.66666666667 x_(0, 6) -1015.66666666667 x_(6, 7) +1015.66666666667 x_(0, 1) +1015.66666666667 x_(0, 2)
  +1015.66666666667 x_(0, 3) +1015.66666666667 x_(0, 4) +1015.66666666667 x_(0, 5) +1015.66666666667 x_(1, 7)
  +1015.66666666667 x_(1, 2) +1015.66666666667 x_(1, 3) +1015.66666666667 x_(1, 4) +1015.66666666667 x_(1, 6)
  +1015.66666666667 x_(2, 7) +1015.66666666667 x_(2, 3) +1015.66666666667 x_(3, 7) +1015.66666666667 x_(3, 2)
  +1015.66666666667 x_(3, 5) +1015.66666666667 x_(3, 6) +1015.66666666667 x_(3, 4) +1015.66666666667 x_(4, 7)
  +1015.66666666667 x_(4, 1) +1015.66666666667 x_(4, 2) +1015.66666666667 x_(4, 3) +1015.66666666667 x_(4, 5)
  +1015.66666666667 x_(4, 6) +1015.66666666667 x_(5, 7) +1015.66666666667 x_(5, 2) +1015.66666666667 x_(5, 4)
  +1015.66666666667 x_(5, 1) +1015.66666666667 x_(5, 6) +1015.66666666667 x_(6, 2) +1015.66666666667 x_(6, 3)
  +1015.66666666667 x_(6, 4) +1015.66666666667 x_(6, 5) >= -2010.33333333334
 Lshaped_8: +1 phi -1173.66666666667 x_(0, 3) -1173.66666666667 x_(3, 6) -1173.66666666667 x_(5, 7) -1173.66666666667 x_(6, 5)
  +1173.66666666667 x_(0, 1) +1173.66666666667 x_(0, 2) +1173.66666666667 x_(0, 4) +1173.66666666667 x_(0, 5)
  +1173.66666666667 x_(0, 6) +1173.66666666667 x_(1, 7) +1173.66666666667 x_(1, 2) +1173.66666666667 x_(1, 3)
  +1173.66666666667 x_(1, 4) +1173.66666666667 x_(1, 6) +1173.66666666667 x_(2, 7) +1173.66666666667 x_(2, 3)
  +1173.66666666667 x_(3, 7) +1173.66666666667 x_(3, 2) +1173.66666666667 x_(3, 5) +1173.66666666667 x_(3, 4)
  +1173.66666666667 x_(4, 7) +1173.66666666667 x_(4, 1) +1173.66666666667 x_(4, 2) +1173.66666666667 x_(4, 3)
  +1173.66666666667 x_(4, 5) +1173.66666666667 x_(4, 6) +1173.66666666667 x_(5, 2) +1173.66666666667 x_(5, 4)
  +1173.66666666667 x_(5, 1) +1173.66666666667 x_(5, 6) +1173.66666666667 x_(6, 7) +1173.66666666667 x_(6, 2)
  +1173.66666666667 x_(6, 3) +1173.66666666667 x_(6, 4) >= -4515.66666666667
 Lshaped_9: +1 phi -994.666666666667 x_(0, 5) -994.666666666667 x_(5, 7) +994.666666666667 x_(0, 1) +994.666666666667 x_(0, 2)
  +994.666666666667 x_(0, 3) +994.666666666667 x_(0, 4) +994.666666666667 x_(0, 6) +994.666666666667 x_(1, 7)
  +994.666666666667 x_(1, 2) +994.666666666667 x_(1, 3) +994.666666666667 x_(1, 4) +994.666666666667 x_(1, 6)
  +994.666666666667 x_(2, 7) +994.666666666667 x_(2, 3) +994.666666666667 x_(3, 7) +994.666666666667 x_(3, 2)
  +994.666666666667 x_(3, 5) +994.666666666667 x_(3, 6) +994.666666666667 x_(3, 4) +994.666666666667 x_(4, 7)
  +994.666666666667 x_(4, 1) +994.666666666667 x_(4, 2) +994.666666666667 x_(4, 3) +994.666666666667 x_(4, 5)
  +994.666666666667 x_(4, 6) +994.666666666667 x_(5, 2) +994.666666666667 x_(5, 4) +994.666666666667 x_(5, 1)
  +994.666666666667 x_(5, 6) +994.666666666667 x_(6, 7) +994.666666666667 x_(6, 2) +994.666666666667 x_(6, 3)
  +994.666666666667 x_(6, 4) +994.666666666667 x_(6, 5) >= -1989.33333333334
 Lshaped_10: +1 phi -1056 x_(0, 5) -1056 x_(1, 7) -1056 x_(5, 1) +1056 x_(0, 1) +1056 x_(0, 2) +1056 x_(0, 3)
  +1056 x_(0, 4) +1056 x_(0, 6) +1056 x_(1, 2) +1056 x_(1, 3) +1056 x_(1, 4) +1056 x_(1, 6) +1056 x_(2, 7)
  +1056 x_(2, 3) +1056 x_(3, 7) +1056 x_(3, 2) +1056 x_(3, 5) +1056 x_(3, 6) +1056 x_(3, 4) +1056 x_(4, 7)
  +1056 x_(4, 1) +1056 x_(4, 2) +1056 x_(4, 3) +1056 x_(4, 5) +1056 x_(4, 6) +1056 x_(5, 7) +1056 x_(5, 2)
  +1056 x_(5, 4) +1056 x_(5, 6) +1056 x_(6, 7) +1056 x_(6, 2) +1056 x_(6, 3) +1056 x_(6, 4) +1056 x_(6, 5)
  >= -3106.66666666667
 Lshaped_11: +1 phi -1137.66666666667 x_(0, 6) -1137.66666666667 x_(1, 7) -1137.66666666667 x_(5, 1) -1137.66666666667 x_(6, 5)
  +1137.66666666667 x_(0, 1) +1137.66666666667 x_(0, 2) +1137.66666666667 x_(0, 3) +1137.66666666667 x_(0, 4)
  +1137.66666666667 x_(0, 5) +1137.66666666667 x_(1, 2) +1137.66666666667 x_(1, 3) +1137.66666666667 x_(1, 4)
  +1137.66666666667 x_(1, 6) +1137.66666666667 x_(2, 7) +1137.66666666667 x_(2, 3) +1137.66666666667 x_(3, 7)
  +1137.66666666667 x_(3, 2) +1137.66666666667 x_(3, 5) +1137.66666666667 x_(3, 6) +1137.66666666667 x_(3, 4)
  +1137.66666666667 x_(4, 7) +1137.66666666667 x_(4, 1) +1137.66666666667 x_(4, 2) +1137.66666666667 x_(4, 3)
  +1137.66666666667 x_(4, 5) +1137.66666666667 x_(4, 6) +1137.66666666667 x_(5, 7) +1137.66666666667 x_(5, 2)
  +1137.66666666667 x_(5, 4) +1137.66666666667 x_(5, 6) +1137.66666666667 x_(6, 7) +1137.66666666667 x_(6, 2)
  +1137.66666666667 x_(6, 3) +1137.66666666667 x_(6, 4) >= -4407.66666666667
 Lshaped_12: +1 phi -1177.66666666667 x_(0, 2) -1177.66666666667 x_(2, 3) -1177.66666666667 x_(3, 6) -1177.66666666667 x_(6, 7)
  +1177.66666666667 x_(0, 1) +1177.66666666667 x_(0, 3) +1177.66666666667 x_(0, 4) +1177.66666666667 x_(0, 5)
  +1177.66666666667 x_(0, 6) +1177.66666666667 x_(1, 7) +1177.66666666667 x_(1, 2) +1177.66666666667 x_(1, 3)
  +1177.66666666667 x_(1, 4) +1177.66666666667 x_(1, 6) +1177.66666666667 x_(2, 7) +1177.66666666667 x_(3, 7)
  +1177.66666666667 x_(3, 2) +1177.66666666667 x_(3, 5) +1177.66666666667 x_(3, 4) +1177.66666666667 x_(4, 7)
  +1177.66666666667 x_(4, 1) +1177.66666666667 x_(4, 2) +1177.66666666667 x_(4, 3) +1177.66666666667 x_(4, 5)
  +1177.66666666667 x_(4, 6) +1177.66666666667 x_(5, 7) +1177.66666666667 x_(5, 2) +1177.66666666667 x_(5, 4)
  +1177.66666666667 x_(5, 1) +1177.66666666667 x_(5, 6) +1177.66666666667 x_(6, 2) +1177.66666666667 x_(6, 3)
  +1177.66666666667 x_(6, 4) +1177.66666666667 x_(6, 5) >= -4527.66666666667
 Lshaped_13: +1 phi -1181.66666666667 x_(0, 3) -1181.66666666667 x_(3, 5) -1181.66666666667 x_(5, 6) -1181.66666666667 x_(6, 7)
  +1181.66666666667 x_(0, 1) +1181.66666666667 x_(0, 2) +1181.66666666667 x_(0, 4) +1181.66666666667 x_(0, 5)
  +1181.66666666667 x_(0, 6) +1181.66666666667 x_(1, 7) +1181.66666666667 x_(1, 2) +1181.66666666667 x_(1, 3)
  +1181.66666666667 x_(1, 4) +1181.66666666667 x_(1, 6) +1181.66666666667 x_(2, 7) +1181.66666666667 x_(2, 3)
  +1181.66666666667 x_(3, 7) +1181.66666666667 x_(3, 2) +1181.66666666667 x_(3, 6) +1181.66666666667 x_(3, 4)
  +1181.66666666667 x_(4, 7) +1181.66666666667 x_(4, 1) +1181.66666666667 x_(4, 2) +1181.66666666667 x_(4, 3)
  +1181.66666666667 x_(4, 5) +1181.66666666667 x_(4, 6) +1181.66666666667 x_(5, 7) +1181.66666666667 x_(5, 2)
  +1181.66666666667 x_(5, 4) +1181.66666666667 x_(5, 1) +1181.66666666667 x_(6, 2) +1181.66666666667 x_(6, 3)
  +1181.66666666667 x_(6, 4) +1181.66666666667 x_(6, 5) >= -4539.66666666667
 Lshaped_14: +1 phi -1124.66666666667 x_(0, 4) -1124.66666666667 x_(4, 5) -1124.66666666667 x_(5, 7) +1124.66666666667 x_(0, 1)
  +1124.66666666667 x_(0, 2) +1124.66666666667 x_(0, 3) +1124.66666666667 x_(0, 5) +1124.66666666667 x_(0, 6)
  +1124.66666666667 x_(1, 7) +1124.66666666667 x_(1, 2) +1124.66666666667 x_(1, 3) +1124.66666666667 x_(1, 4)
  +1124.66666666667 x_(1, 6) +1124.66666666667 x_(2, 7) +1124.66666666667 x_(2, 3) +1124.66666666667 x_(3, 7)
  +1124.66666666667 x_(3, 2) +1124.66666666667 x_(3, 5) +1124.66666666667 x_(3, 6) +1124.66666666667 x_(3, 4)
  +1124.66666666667 x_(4, 7) +1124.66666666667 x_(4, 1) +1124.66666666667 x_(4, 2) +1124.66666666667 x_(4, 3)
  +1124.66666666667 x_(4, 6) +1124.66666666667 x_(5, 2) +1124.66666666667 x_(5, 4) +1124.66666666667 x_(5, 1)
  +1124.66666666667 x_(5, 6) +1124.66666666667 x_(6, 7) +1124.66666666667 x_(6, 2) +1124.66666666667 x_(6, 3)
  +1124.66666666667 x_(6, 4) +1124.66666666667 x_(6, 5) >= -3244
 Lshaped_15: +1 phi -1132.66666666667 x_(0, 4) -1132.66666666667 x_(4, 6) -1132.66666666667 x_(6, 7) +1132.66666666667 x_(0, 1)
  +1132.66666666667 x_(0, 2) +1132.66666666667 x_(0, 3) +1132.66666666667 x_(0, 5) +1132.66666666667 x_(0, 6)
  +1132.66666666667 x_(1, 7) +1132.66666666667 x_(1, 2) +1132.66666666667 x_(1, 3) +1132.66666666667 x_(1, 4)
  +1132.66666666667 x_(1, 6) +1132.66666666667 x_(2, 7) +1132.66666666667 x_(2, 3) +1132.66666666667 x_(3, 7)
  +1132.66666666667 x_(3, 2) +1132.66666666667 x_(3, 5) +1132.66666666667 x_(3, 6) +1132.66666666667 x_(3, 4)
  +1132.66666666667 x_(4, 7) +1132.66666666667 x_(4, 1) +1132.66666666667 x_(4, 2) +1132.66666666667 x_(4, 3)
  +1132.66666666667 x_(4, 5) +1132.66666666667 x_(5, 7) +1132.66666666667 x_(5, 2) +1132.66666666667 x_(5, 4)
  +1132.66666666667 x_(5, 1) +1132.66666666667 x_(5, 6) +1132.66666666667 x_(6, 2) +1132.66666666667 x_(6, 3)
  +1132.66666666667 x_(6, 4) +1132.66666666667 x_(6, 5) >= -3260
 Lshaped_16: +1 phi -1136.66666666667 x_(0, 1) -1136.66666666667 x_(1, 6) -1136.66666666667 x_(6, 7) +1136.66666666667 x_(0, 2)
  +1136.66666666667 x_(0, 3) +1136.66666666667 x_(0, 4) +1136.66666666667 x_(0, 5) +1136.66666666667 x_(0, 6)
  +1136.66666666667 x_(1, 7) +1136.66666666667 x_(1, 2) +1136.66666666667 x_(1, 3) +1136.66666666667 x_(1, 4)
  +1136.66666666667 x_(2, 7) +1136.66666666667 x_(2, 3) +1136.66666666667 x_(3, 7) +1136.66666666667 x_(3, 2)
  +1136.66666666667 x_(3, 5) +1136.66666666667 x_(3, 6) +1136.66666666667 x_(3, 4) +1136.66666666667 x_(4, 7)
  +1136.66666666667 x_(4, 1) +1136.66666666667 x_(4, 2) +1136.66666666667 x_(4, 3) +1136.66666666667 x_(4, 5)
  +1136.66666666667 x_(4, 6) +1136.66666666667 x_(5, 7) +1136.66666666667 x_(5, 2) +1136.66666666667 x_(5, 4)
  +1136.66666666667 x_(5, 1) +1136.66666666667 x_(5, 6) +1136.66666666667 x_(6, 2) +1136.66666666667 x_(6, 3)
  +1136.66666666667 x_(6, 4) +1136.66666666667 x_(6, 5) >= -3268
 Lshaped_17: +1 phi -1203.66666666667 x_(0, 4) -1203.66666666667 x_(1, 6) -1203.66666666667 x_(4, 1) -1203.66666666667 x_(6, 7)
  +1203.66666666667 x_(0, 1) +1203.66666666667 x_(0, 2) +1203.66666666667 x_(0, 3) +1203.66666666667 x_(0, 5)
  +1203.66666666667 x_(0, 6) +1203.66666666667 x_(1, 7) +1203.66666666667 x_(1, 2) +1203.66666666667 x_(1, 3)
  +1203.66666666667 x_(1, 4) +1203.66666666667 x_(2, 7) +1203.66666666667 x_(2, 3) +1203.66666666667 x_(3, 7)
  +1203.66666666667 x_(3, 2) +1203.66666666667 x_(3, 5) +1203.66666666667 x_(3, 6) +1203.66666666667 x_(3, 4)
  +1203.66666666667 x_(4, 7) +1203.66666666667 x_(4, 2) +1203.66666666667 x_(4, 3) +1203.66666666667 x_(4, 5)
  +1203.66666666667 x_(4, 6) +1203.66666666667 x_(5, 7) +1203.66666666667 x_(5, 2) +1203.66666666667 x_(5, 4)
  +1203.66666666667 x_(5, 1) +1203.66666666667 x_(5, 6) +1203.66666666667 x_(6, 2) +1203.66666666667 x_(6, 3)
  +1203.66666666667 x_(6, 4) +1203.66666666667 x_(6, 5) >= -4605.66666666667
 Lshaped_18: +1 phi -1156.66666666667 x_(0, 6) -1156.66666666667 x_(3, 5) -1156.66666666667 x_(5, 7) -1156.66666666667 x_(6, 3)
  +1156.66666666667 x_(0, 1) +1156.66666666667 x_(0, 2) +1156.66666666667 x_(0, 3) +1156.66666666667 x_(0, 4)
  +1156.66666666667 x_(0, 5) +1156.66666666667 x_(1, 7) +1156.66666666667 x_(1, 2) +1156.66666666667 x_(1, 3)
  +1156.66666666667 x_(1, 4) +1156.66666666667 x_(1, 6) +1156.66666666667 x_(2, 7) +1156.66666666667 x_(2, 3)
  +1156.66666666667 x_(3, 7) +1156.66666666667 x_(3, 2) +1156.66666666667 x_(3, 6) +1156.66666666667 x_(3, 4)
  +1156.66666666667 x_(4, 7) +1156.66666666667 x_(4, 1) +1156.66666666667 x_(4, 2) +1156.66666666667 x_(4, 3)
  +1156.66666666667 x_(4, 5) +1156.66666666667 x_(4, 6) +1156.66666666667 x_(5, 2) +1156.66666666667 x_(5, 4)
  +1156.66666666667 x_(5, 1) +1156.66666666667 x_(5, 6) +1156.66666666667 x_(6, 7) +1156.66666666667 x_(6, 2)
  +1156.66666666667 x_(6, 4) +1156.66666666667 x_(6, 5) >= -4464.66666666667
 Lshaped_19: +1 phi -1140.66666666667 x_(0, 3) -1140.66666666667 x_(3, 5) -1140.66666666667 x_(5, 7) +1140.66666666667 x_(0, 1)
  +1140.66666666667 x_(0, 2) +1140.66666666667 x_(0, 4) +1140.66666666667 x_(0, 5) +1140.66666666667 x_(0, 6)
  +1140.66666666667 x_(1, 7) +1140.66666666667 x_(1, 2) +1140.66666666667 x_(1, 3) +1140.66666666667 x_(1, 4)
  +1140.66666666667 x_(1, 6) +1140.66666666667 x_(2, 7) +1140.66666666667 x_(2, 3) +1140.66666666667 x_(3, 7)
  +1140.66666666667 x_(3, 2) +1140.66666666667 x_(3, 6) +1140.66666666667 x_(3, 4) +1140.66666666667 x_(4, 7)
  +1140.66666666667 x_(4, 1) +1140.66666666667 x_(4, 2) +1140.66666666667 x_(4, 3) +1140.66666666667 x_(4, 5)
  +1140.66666666667 x_(4, 6) +1140.66666666667 x_(5, 2) +1140.66666666667 x_(5, 4) +1140.66666666667 x_(5, 1)
  +1140.66666666667 x_(5, 6) +1140.66666666667 x_(6, 7) +1140.66666666667 x_(6, 2) +1140.66666666667 x_(6, 3)
  +1140.66666666667 x_(6, 4) +1140.66666666667 x_(6, 5) >= -3276
 Lshaped_20: +1 phi -1146.66666666667 x_(0, 3) -1146.66666666667 x_(3, 6) -1146.66666666667 x_(6, 7) +1146.66666666667 x_(0, 1)
  +1146.66666666667 x_(0, 2) +1146.66666666667 x_(0, 4) +1146.66666666667 x_(0, 5) +1146.66666666667 x_(0, 6)
  +1146.66666666667 x_(1, 7) +1146.66666666667 x_(1, 2) +1146.66666666667 x_(1, 3) +1146.66666666667 x_(1, 4)
  +1146.66666666667 x_(1, 6) +1146.66666666667 x_(2, 7) +1146.66666666667 x_(2, 3) +1146.66666666667 x_(3, 7)
  +1146.66666666667 x_(3, 2) +1146.66666666667 x_(3, 5) +1146.66666666667 x_(3, 4) +1146.66666666667 x_(4, 7)
  +1146.66666666667 x_(4, 1) +1146.66666666667 x_(4, 2) +1146.66666666667 x_(4, 3) +1146.66666666667 x_(4, 5)
  +1146.66666666667 x_(4, 6) +1146.66666666667 x_(5, 7) +1146.66666666667 x_(5, 2) +1146.66666666667 x_(5, 4)
  +1146.66666666667 x_(5, 1) +1146.66666666667 x_(5, 6) +1146.66666666667 x_(6, 2) +1146.66666666667 x_(6, 3)
  +1146.66666666667 x_(6, 4) +1146.66666666667 x_(6, 5) >= -3288
 Lshaped_21: +1 phi -1204.66666666667 x_(0, 2) -1204.66666666667 x_(2, 3) -1204.66666666667 x_(3, 6) -1204.66666666667 x_(5, 7)
  -1204.66666666667 x_(6, 5) +1204.66666666667 x_(0, 1) +1204.66666666667 x_(0, 3) +1204.66666666667 x_(0, 4)
  +1204.66666666667 x_(0, 5) +1204.66666666667 x_(0, 6) +1204.66666666667 x_(1, 7) +1204.66666666667 x_(1, 2)
  +1204.66666666667 x_(1, 3) +1204.66666666667 x_(1, 4) +1204.66666666667 x_(1, 6) +1204.66666666667 x_(2, 7)
  +1204.66666666667 x_(3, 7) +1204.66666666667 x_(3, 2) +1204.66666666667 x_(3, 5) +1204.66666666667 x_(3, 4)
  +1204.66666666667 x_(4, 7) +1204.66666666667 x_(4, 1) +1204.66666666667 x_(4, 2) +1204.66666666667 x_(4, 3)
  +1204.66666666667 x_(4, 5) +1204.66666666667 x_(4, 6) +1204.66666666667 x_(5, 2) +1204.66666666667 x_(5, 4)
  +1204.66666666667 x_(5, 1) +1204.66666666667 x_(5, 6) +1204.66666666667 x_(6, 7) +1204.66666666667 x_(6, 2)
  +1204.66666666667 x_(6, 3) +1204.66666666667 x_(6, 4) >= -5813.33333333334
 Lshaped_22: +1 phi -1205.66666666667 x_(0, 4) -1205.66666666667 x_(3, 5) -1205.66666666667 x_(4, 3) -1205.66666666667 x_(5, 7)
  +1205.66666666667 x_(0, 1) +1205.66666666667 x_(0, 2) +1205.66666666667 x_(0, 3) +1205.66666666667 x_(0, 5)
  +1205.66666666667 x_(0, 6) +1205.66666666667 x_(1, 7) +1205.66666666667 x_(1, 2) +1205.66666666667 x_(1, 3)
  +1205.66666666667 x_(1, 4) +1205.66666666667 x_(1, 6) +1205.66666666667 x_(2, 7) +1205.66666666667 x_(2, 3)
  +1205.66666666667 x_(3, 7) +1205.66666666667 x_(3, 2) +1205.66666666667 x_(3, 6) +1205.66666666667 x_(3, 4)
  +1205.66666666667 x_(4, 7) +1205.66666666667 x_(4, 1) +1205.66666666667 x_(4, 2) +1205.66666666667 x_(4, 5)
  +1205.66666666667 x_(4, 6) +1205.66666666667 x_(5, 2) +1205.66666666667 x_(5, 4) +1205.66666666667 x_(5, 1)
  +1205.66666666667 x_(5, 6) +1205.66666666667 x_(6, 7) +1205.66666666667 x_(6, 2) +1205.66666666667 x_(6, 3)
  +1205.66666666667 x_(6, 4) +1205.66666666667 x_(6, 5) >= -4611.66666666667
 Lshaped_23: +1 phi -1155.66666666665 x_(0, 5) -1155.66666666665 x_(4, 6) -1155.66666666665 x_(5, 4) -1155.66666666665 x_(6, 7)
  +1155.66666666665 x_(0, 1) +1155.66666666665 x_(0, 2) +1155.66666666665 x_(0, 3) +1155.66666666665 x_(0, 4)
  +1155.66666666665 x_(0, 6) +1155.66666666665 x_(1, 7) +1155.66666666665 x_(1, 2) +1155.66666666665 x_(1, 3)
  +1155.66666666665 x_(1, 4) +1155.66666666665 x_(1, 6) +1155.66666666665 x_(2, 7) +1155.66666666665 x_(2, 3)
  +1155.66666666665 x_(3, 7) +1155.66666666665 x_(3, 2) +1155.66666666665 x_(3, 5) +1155.66666666665 x_(3, 6)
  +1155.66666666665 x_(3, 4) +1155.66666666665 x_(4, 7) +1155.66666666665 x_(4, 1) +1155.66666666665 x_(4, 2)
  +1155.66666666665 x_(4, 3) +1155.66666666665 x_(4, 5) +1155.66666666665 x_(5, 7) +1155.66666666665 x_(5, 2)
  +1155.66666666665 x_(5, 1) +1155.66666666665 x_(5, 6) +1155.66666666665 x_(6, 2) +1155.66666666665 x_(6, 3)
  +1155.66666666665 x_(6, 4) +1155.66666666665 x_(6, 5) >= -4461.66666666663
 Lshaped_24: +1 phi -1212.66666666667 x_(0, 2) -1212.66666666667 x_(2, 3) -1212.66666666667 x_(3, 5) -1212.66666666667 x_(5, 6)
  -1212.66666666667 x_(6, 7) +1212.66666666667 x_(0, 1) +1212.66666666667 x_(0, 3) +1212.66666666667 x_(0, 4)
  +1212.66666666667 x_(0, 5) +1212.66666666667 x_(0, 6) +1212.66666666667 x_(1, 7) +1212.66666666667 x_(1, 2)
  +1212.66666666667 x_(1, 3) +1212.66666666667 x_(1, 4) +1212.66666666667 x_(1, 6) +1212.66666666667 x_(2, 7)
  +1212.66666666667 x_(3, 7) +1212.66666666667 x_(3, 2) +1212.66666666667 x_(3, 6) +1212.66666666667 x_(3, 4)
  +1212.66666666667 x_(4, 7) +1212.66666666667 x_(4, 1) +1212.66666666667 x_(4, 2) +1212.66666666667 x_(4, 3)
  +1212.66666666667 x_(4, 5) +1212.66666666667 x_(4, 6) +1212.66666666667 x_(5, 7) +1212.66666666667 x_(5, 2)
  +1212.66666666667 x_(5, 4) +1212.66666666667 x_(5, 1) +1212.66666666667 x_(6, 2) +1212.66666666667 x_(6, 3)
  +1212.66666666667 x_(6, 4) +1212.66666666667 x_(6, 5) >= -5845.33333333334
 Lshaped_25: +1 phi -1131 x_(0, 6) -1131 x_(2, 7) -1131 x_(6, 2) +1131 x_(0, 1) +1131 x_(0, 2) +1131 x_(0, 3)
  +1131 x_(0, 4) +1131 x_(0, 5) +1131 x_(1, 7) +1131 x_(1, 2) +1131 x_(1, 3) +1131 x_(1, 4) +1131 x_(1, 6)
  +1131 x_(2, 3) +1131 x_(3, 7) +1131 x_(3, 2) +1131 x_(3, 5) +1131 x_(3, 6) +1131 x_(3, 4) +1131 x_(4, 7)
  +1131 x_(4, 1) +1131 x_(4, 2) +1131 x_(4, 3) +1131 x_(4, 5) +1131 x_(4, 6) +1131 x_(5, 7) +1131 x_(5, 2)
  +1131 x_(5, 4) +1131 x_(5, 1) +1131 x_(5, 6) +1131 x_(6, 7) +1131 x_(6, 3) +1131 x_(6, 4) +1131 x_(6, 5)
  >= -3256.66666666667
 Lshaped_26: +1 phi -1211.66666666667 x_(0, 4) -1211.66666666667 x_(3, 6) -1211.66666666667 x_(4, 3) -1211.66666666667 x_(6, 7)
  +1211.66666666667 x_(0, 1) +1211.66666666667 x_(0, 2) +1211.66666666667 x_(0, 3) +1211.66666666667 x_(0, 5)
  +1211.66666666667 x_(0, 6) +1211.66666666667 x_(1, 7) +1211.66666666667 x_(1, 2) +1211.66666666667 x_(1, 3)
  +1211.66666666667 x_(1, 4) +1211.66666666667 x_(1, 6) +1211.66666666667 x_(2, 7) +1211.66666666667 x_(2, 3)
  +1211.66666666667 x_(3, 7) +1211.66666666667 x_(3, 2) +1211.66666666667 x_(3, 5) +1211.66666666667 x_(3, 4)
  +1211.66666666667 x_(4, 7) +1211.66666666667 x_(4, 1) +1211.66666666667 x_(4, 2) +1211.66666666667 x_(4, 5)
  +1211.66666666667 x_(4, 6) +1211.66666666667 x_(5, 7) +1211.66666666667 x_(5, 2) +1211.66666666667 x_(5, 4)
  +1211.66666666667 x_(5, 1) +1211.66666666667 x_(5, 6) +1211.66666666667 x_(6, 2) +1211.66666666667 x_(6, 3)
  +1211.66666666667 x_(6, 4) +1211.66666666667 x_(6, 5) >= -4629.66666666667
 Lshaped_27: +1 phi -1230.66666666667 x_(0, 4) -1230.66666666667 x_(1, 6) -1230.66666666667 x_(4, 1) -1230.66666666667 x_(5, 7)
  -1230.66666666667 x_(6, 5) +1230.66666666667 x_(0, 1) +1230.66666666667 x_(0, 2) +1230.66666666667 x_(0, 3)
  +1230.66666666667 x_(0, 5) +1230.66666666667 x_(0, 6) +1230.66666666667 x_(1, 7) +1230.66666666667 x_(1, 2)
  +1230.66666666667 x_(1, 3) +1230.66666666667 x_(1, 4) +1230.66666666667 x_(2, 7) +1230.66666666667 x_(2, 3)
  +1230.66666666667 x_(3, 7) +1230.66666666667 x_(3, 2) +1230.66666666667 x_(3, 5) +1230.66666666667 x_(3, 6)
  +1230.66666666667 x_(3, 4) +1230.66666666667 x_(4, 7) +1230.66666666667 x_(4, 2) +1230.66666666667 x_(4, 3)
  +1230.66666666667 x_(4, 5) +1230.66666666667 x_(4, 6) +1230.66666666667 x_(5, 2) +1230.66666666667 x_(5, 4)
  +1230.66666666667 x_(5, 1) +1230.66666666667 x_(5, 6) +1230.66666666667 x_(6, 7) +1230.66666666667 x_(6, 2)
  +1230.66666666667 x_(6, 3) +1230.66666666667 x_(6, 4) >= -5917.33333333334
 Lshaped_28: +1 phi -1129.66666666667 x_(0, 6) -1129.66666666667 x_(3, 7) -1129.66666666667 x_(6, 3) +1129.66666666667 x_(0, 1)
  +1129.66666666667 x_(0, 2) +1129.66666666667 x_(0, 3) +1129.66666666667 x_(0, 4) +1129.66666666667 x_(0, 5)
  +1129.66666666667 x_(1, 7) +1129.66666666667 x_(1, 2) +1129.66666666667 x_(1, 3) +1129.66666666667 x_(1, 4)
  +1129.66666666667 x_(1, 6) +1129.66666666667 x_(2, 7) +1129.66666666667 x_(2, 3) +1129.66666666667 x_(3, 2)
  +1129.66666666667 x_(3, 5) +1129.66666666667 x_(3, 6) +1129.66666666667 x_(3, 4) +1129.66666666667 x_(4, 7)
  +1129.66666666667 x_(4, 1) +1129.66666666667 x_(4, 2) +1129.66666666667 x_(4, 3) +1129.66666666667 x_(4, 5)
  +1129.66666666667 x_(4, 6) +1129.66666666667 x_(5, 7) +1129.66666666667 x_(5, 2) +1129.66666666667 x_(5, 4)
  +1129.66666666667 x_(5, 1) +1129.66666666667 x_(5, 6) +1129.66666666667 x_(6, 7) +1129.66666666667 x_(6, 2)
  +1129.66666666667 x_(6, 4) +1129.66666666667 x_(6, 5) >= -3254
 Lshaped_29: +1 phi -1236.66666666667 x_(0, 1) -1236.66666666667 x_(1, 3) -1236.66666666667 x_(3, 6) -1236.66666666667 x_(6, 7)
  +1236.66666666667 x_(0, 2) +1236.66666666667 x_(0, 3) +1236.66666666667 x_(0, 4) +1236.66666666667 x_(0, 5)
  +1236.66666666667 x_(0, 6) +1236.66666666667 x_(1, 7) +1236.66666666667 x_(1, 2) +1236.66666666667 x_(1, 4)
  +1236.66666666667 x_(1, 6) +1236.66666666667 x_(2, 7) +1236.66666666667 x_(2, 3) +1236.66666666667 x_(3, 7)
  +1236.66666666667 x_(3, 2) +1236.66666666667 x_(3, 5) +1236.66666666667 x_(3, 4) +1236.66666666667 x_(4, 7)
  +1236.66666666667 x_(4, 1) +1236.66666666667 x_(4, 2) +1236.66666666667 x_(4, 3) +1236.66666666667 x_(4, 5)
  +1236.66666666667 x_(4, 6) +1236.66666666667 x_(5, 7) +1236.66666666667 x_(5, 2) +1236.66666666667 x_(5, 4)
  +1236.66666666667 x_(5, 1) +1236.66666666667 x_(5, 6) +1236.66666666667 x_(6, 2) +1236.66666666667 x_(6, 3)
  +1236.66666666667 x_(6, 4) +1236.66666666667 x_(6, 5) >= -4704.66666666667
 phi_cons: +1 phi +61.3333333333331 y_(5, 1, 0) +61.3333333333331 y_(5, 1, 1) +61.3333333333331 y_(6, 1, 0)
  +61.3333333333331 y_(6, 1, 1) +72.6666666666669 y_(5, 2, 0) +72.6666666666669 y_(5, 2, 1) +72.6666666666669 y_(6, 2, 0)
  +72.6666666666669 y_(6, 2, 1) +57.3333333333335 y_(5, 3, 0) +57.3333333333335 y_(5, 3, 1) +57.3333333333335 y_(6, 3, 0)
  +57.3333333333335 y_(6, 3, 1) +57.3333333333335 y_(5, 4, 0) +57.3333333333335 y_(5, 4, 1) +57.3333333333335 y_(6, 4, 0)
  +57.3333333333335 y_(6, 4, 1) -1 a_1 -1 a_2 -1 a_3 -1 a_4 -1 ak_7 >= +0
Bounds
 0 <= x_(0, 1) <= 1
 0 <= x_(0, 2) <= 1
 0 <= x_(0, 3) <= 1
 0 <= x_(0, 4) <= 1
 0 <= x_(0, 5) <= 1
 0 <= x_(0, 6) <= 1
 0 <= x_(1, 7) <= 1
 0 <= x_(1, 2) <= 1
 0 <= x_(1, 3) <= 1
 0 <= x_(1, 4) <= 1
 0 <= x_(1, 6) <= 1
 0 <= x_(2, 7) <= 1
 0 <= x_(2, 3) <= 1
 0 <= x_(3, 7) <= 1
 0 <= x_(3, 2) <= 1
 0 <= x_(3, 5) <= 1
 0 <= x_(3, 6) <= 1
 0 <= x_(3, 4) <= 1
 0 <= x_(4, 7) <= 1
 0 <= x_(4, 1) <= 1
 0 <= x_(4, 2) <= 1
 0 <= x_(4, 3) <= 1
 0 <= x_(4, 5) <= 1
 0 <= x_(4, 6) <= 1
 0 <= x_(5, 7) <= 1
 0 <= x_(5, 2) <= 1
 0 <= x_(5, 4) <= 1
 0 <= x_(5, 1) <= 1
 0 <= x_(5, 2) <= 1
 0 <= x_(5, 6) <= 1
 0 <= x_(6, 7) <= 1
 0 <= x_(6, 2) <= 1
 0 <= x_(6, 3) <= 1
 0 <= x_(6, 4) <= 1
 0 <= x_(6, 4) <= 1
 0 <= x_(6, 5) <= 1
 -994.666666666668 <= phi
 0 <= wk_0 <= 100
 0 <= wk_1 <= 100
 0 <= wk_2 <= 100
 0 <= wk_3 <= 100
 0 <= wk_4 <= 100
 0 <= wk_5 <= 100
 0 <= wk_6 <= 100
 0 <= wk_7 <= 100
Binaries
 x_(0, 1) x_(0, 2) x_(0, 3) x_(0, 4) x_(0, 5) x_(0, 6) x_(1, 7) x_(1, 2) x_(1, 3) x_(1, 4) x_(1, 6) x_(2, 7)
 x_(2, 3) x_(3, 7) x_(3, 2) x_(3, 5) x_(3, 6) x_(3, 4) x_(4, 7) x_(4, 1) x_(4, 2) x_(4, 3) x_(4, 5) x_(4, 6)
 x_(5, 7) x_(5, 2) x_(5, 4) x_(5, 1) x_(5, 2) x_(5, 6) x_(6, 7) x_(6, 2) x_(6, 3) x_(6, 4) x_(6, 4) x_(6, 5)
End
