\ Model RMP
\ LP format - for model browsing. Use MPS format to capture full model detail.
Minimize
  1681 z_0 + 494 z_1 + 2292 z_2 + 913 z_3 + 555 z_4 + 1355 z_5 + 731 z_6
   + 2024 z_7 + 7332 z_8 + 3447 z_9 + 4288 z_10 + 19033 z_11 + 27307 z_12
   + 9063 z_13 + 22998 z_14 + 23265 z_15 + 15042 z_16 + 6065 z_17
   + 26259 z_18 + 19115 z_19 + 16697 z_20 + 16506 z_21 + 6756 z_22
   + 13332 z_23 + 9252 z_24 + 8350 z_25 + 5576 z_26 + 9045 z_27 + 8750 z_28
   + 5292 z_29 + 8780 z_30 + 5175 z_31 + 2872 z_32 + 4559 z_33 + 2399 z_34
   + 3847 z_35 + 3680 z_36 + 2430 z_37 + 1087 z_38 + 1816 z_39 + 2968 z_40
   + 2545 z_41 + 4448 z_42 + 5177 z_43 + 2657 z_44 + 1516 z_45 + 1816 z_46
   + 787 z_47 + 2657 z_48 + 2545 z_49 + 1630 z_50 + 2545 z_51 + 2600 z_52
   + 901 z_53 + 1630 z_54 + 2359 z_55 + 2600 z_56 + 2657 z_57 + 2712 z_58
   + 2600 z_59 + 2301 z_60 + 2840 z_61 + 1928 z_68 + 2906 z_69 + 2840 z_66
   + 2359 z_67 + 2906 z_71 + 2952 z_72 + 3018 z_73 + 1816 z_75 + 2961 z_77
   + 1572 z_80 + 1630 z_81 + 2657 z_82 + 2359 z_83 + 1871 z_84 + 2245 z_79
   + 2414 z_78 + 2906 z_76 + 2301 z_85 + 2414 z_86
Subject To
 visit_customer_0: z_0 + z_8 + z_10 + z_11 + z_12 + z_13 + z_14 + z_15
   + z_16 + z_17 + z_18 + z_19 + z_20 + z_21 + z_22 + z_23 + z_30 + z_61
   + z_68 + z_69 + z_66 + z_71 + z_72 + z_73 + z_75 + z_77 + z_84 + z_76
   = 1
 visit_customer_1: z_1 + z_8 + z_9 + z_11 + z_12 + z_13 + z_14 + z_15
   + z_16 + z_18 + z_24 + z_25 + z_26 + z_27 + z_36 + z_37 + z_61 + z_69
   + z_67 + z_81 + z_82 + z_83 + z_79 + z_85 = 1
 visit_customer_2: z_2 + z_9 + z_10 + z_11 + z_12 + z_13 + z_15 + z_16
   + z_18 + z_24 + z_25 + z_27 + z_28 + z_30 + z_32 + z_35 + z_40 + z_66
   + z_67 + z_71 + z_80 + z_79 + z_78 = 1
 visit_customer_3: z_3 + z_17 + z_18 + z_19 + z_20 + z_21 + z_24 + z_27
   + z_28 + z_29 + z_31 + z_33 + z_35 + z_42 + z_43 + z_68 + z_67 + z_72
   + z_73 + z_81 + z_82 + z_83 + z_78 + z_86 = 1
 visit_customer_4: z_4 + z_12 + z_19 + z_23 + z_32 + z_33 + z_34 + z_61
   + z_66 + z_72 + z_82 = 1
 visit_customer_5: z_5 + z_14 + z_15 + z_16 + z_25 + z_26 + z_28 + z_30
   + z_34 + z_36 + z_75 + z_83 + z_79 + z_76 + z_85 + z_86 = 1
 visit_customer_6: z_6 + z_20 + z_29 + z_37 + z_40 + z_69 + z_71 + z_73
   + z_77 + z_76 = 1
 visit_customer_7: z_7 + z_21 + z_22 + z_23 + z_31 + z_77 + z_80 + z_84
   + z_78 + z_85 + z_86 = 1
 truck_fleet_ub: z_0 + z_1 + z_2 + z_3 + z_4 + z_5 + z_6 + z_7 + z_8 + z_9
   + z_10 + z_11 + z_12 + z_13 + z_14 + z_15 + z_16 + z_17 + z_18 + z_19
   + z_20 + z_21 + z_22 + z_23 + z_24 + z_25 + z_26 + z_27 + z_28 + z_29
   + z_30 + z_31 + z_32 + z_33 + z_34 + z_35 + z_36 + z_37 + z_38 + z_39
   + z_40 + z_41 + z_42 + z_43 + z_44 + z_45 + z_46 + z_47 + z_48 + z_49
   + z_50 + z_51 + z_52 + z_53 + z_54 + z_55 + z_56 + z_57 + z_58 + z_59
   + z_60 + z_61 + z_68 + z_69 + z_66 + z_67 + z_71 + z_72 + z_73 + z_75
   + z_77 + z_80 + z_81 + z_82 + z_83 + z_84 + z_79 + z_78 + z_76 + z_85
   + z_86 <= 5
 truck_fleet_lb: z_0 + z_1 + z_2 + z_3 + z_4 + z_5 + z_6 + z_7 + z_8 + z_9
   + z_10 + z_11 + z_12 + z_13 + z_14 + z_15 + z_16 + z_17 + z_18 + z_19
   + z_20 + z_21 + z_22 + z_23 + z_24 + z_25 + z_26 + z_27 + z_28 + z_29
   + z_30 + z_31 + z_32 + z_33 + z_34 + z_35 + z_36 + z_37 + z_38 + z_39
   + z_40 + z_41 + z_42 + z_43 + z_44 + z_45 + z_46 + z_47 + z_48 + z_49
   + z_50 + z_51 + z_52 + z_53 + z_54 + z_55 + z_56 + z_57 + z_58 + z_59
   + z_60 + z_61 + z_68 + z_69 + z_66 + z_67 + z_71 + z_72 + z_73 + z_75
   + z_77 + z_80 + z_81 + z_82 + z_83 + z_84 + z_79 + z_78 + z_76 + z_85
   + z_86 >= 5
Bounds
End
