\ SCIP STATISTICS
\   Problem name     : BSP
\   Variables        : 104 (32 binary, 0 integer, 0 implicit integer, 72 continuous)
\   Constraints      : 153
Minimize
 Obj: -144 y_(5, 1, 0) -144 y_(5, 1, 1) -124 y_(5, 2, 0) -124 y_(5, 2, 1) -157 y_(5, 3, 0) -157 y_(5, 3, 1)
      -146 y_(5, 4, 0) -146 y_(5, 4, 1) -144 y_(6, 1, 0) -144 y_(6, 1, 1) -124 y_(6, 2, 0) -124 y_(6, 2, 1)
      -157 y_(6, 3, 0) -157 y_(6, 3, 1) -146 y_(6, 4, 0) -146 y_(6, 4, 1) +1 a_1 +1 a_2 +1 a_3 +1 a_4
      +1 ak_7
Subject to
 servonce_1: +1 x_(0, 1) +1 x_(4, 1) +1 x_(5, 1) +1 y_(5, 1, 0) +1 y_(5, 1, 1) +1 y_(6, 1, 0) +1 y_(6, 1, 1)
  <= +1
 servonce_2: +1 x_(0, 2) +2 x_(5, 2) +1 x_(6, 2) +1 x_(1, 2) +1 x_(3, 2) +1 x_(4, 2) +1 y_(5, 2, 0) +1 y_(5, 2, 1)
  +1 y_(6, 2, 0) +1 y_(6, 2, 1) <= +1
 servonce_3: +1 x_(0, 3) +1 x_(6, 3) +1 x_(1, 3) +1 x_(4, 3) +1 x_(2, 3) +1 y_(5, 3, 0) +1 y_(5, 3, 1)
  +1 y_(6, 3, 0) +1 y_(6, 3, 1) <= +1
 servonce_4: +1 x_(0, 4) +1 x_(5, 4) +2 x_(6, 4) +1 x_(1, 4) +1 x_(3, 4) +1 y_(5, 4, 0) +1 y_(5, 4, 1)
  +1 y_(6, 4, 0) +1 y_(6, 4, 1) <= +1
 drone_launch_5: +1 y_(5, 1, 0) +1 y_(5, 2, 0) +1 y_(5, 3, 0) +1 y_(5, 4, 0) +1 y_(5, 1, 1) +1 y_(5, 2, 1)
  +1 y_(5, 3, 1) +1 y_(5, 4, 1) -2 x_(0, 5) -2 x_(3, 5) -2 x_(4, 5) -2 x_(6, 5) <= +0
 drone_launch_6: +1 y_(6, 1, 0) +1 y_(6, 2, 0) +1 y_(6, 3, 0) +1 y_(6, 4, 0) +1 y_(6, 1, 1) +1 y_(6, 2, 1)
  +1 y_(6, 3, 1) +1 y_(6, 4, 1) -2 x_(0, 6) -2 x_(1, 6) -2 x_(3, 6) -2 x_(4, 6) -2 x_(5, 6) <= +0
 wait1_5_1: +1 t_5 -12 y_(5, 1, 0) -12 y_(5, 1, 1) >= +0
 wait1_5_2: +1 t_5 -14 y_(5, 2, 0) -14 y_(5, 2, 1) >= +0
 wait1_5_3: +1 t_5 -4 y_(5, 3, 0) -4 y_(5, 3, 1) >= +0
 wait1_5_4: +1 t_5 -4 y_(5, 4, 0) -4 y_(5, 4, 1) >= +0
 wait1_6_1: +1 t_6 -16 y_(6, 1, 0) -16 y_(6, 1, 1) >= +0
 wait1_6_2: +1 t_6 -6 y_(6, 2, 0) -6 y_(6, 2, 1) >= +0
 wait1_6_3: +1 t_6 -4 y_(6, 3, 0) -4 y_(6, 3, 1) >= +0
 wait1_6_4: +1 t_6 -6 y_(6, 4, 0) -6 y_(6, 4, 1) >= +0
 wait2_0: +1 t_0 <= +0
 wait2_1: +1 t_1 <= +0
 wait2_2: +1 t_2 <= +0
 wait2_3: +1 t_3 <= +0
 wait2_4: +1 t_4 <= +0
 wait2_7: +1 t_7 <= +0
 realized1: +1 ak_0 +1 ad_(0, 0) +1 ad_(0, 1) <= +0
 realized2_1: +1 a_1 -1 ak_1 >= +0
 realized2_2: +1 a_2 -1 ak_2 >= +0
 realized2_3: +1 a_3 -1 ak_3 >= +0
 realized2_4: +1 a_4 -1 ak_4 >= +0
 realized3_1_0: +1 a_1 -1 ad_(1, 0) >= +0
 realized3_1_1: +1 a_1 -1 ad_(1, 1) >= +0
 realized3_2_0: +1 a_2 -1 ad_(2, 0) >= +0
 realized3_2_1: +1 a_2 -1 ad_(2, 1) >= +0
 realized3_3_0: +1 a_3 -1 ad_(3, 0) >= +0
 realized3_3_1: +1 a_3 -1 ad_(3, 1) >= +0
 realized3_4_0: +1 a_4 -1 ad_(4, 0) >= +0
 realized3_4_1: +1 a_4 -1 ad_(4, 1) >= +0
 realized4_0_1: +1 ak_1 -1 ak_0 -1 t_0 -10040 x_(0, 1) >= -10000
 realized4_4_1: +1 ak_1 -1 ak_4 -1 t_4 -10030 x_(4, 1) >= -10000
 realized4_5_1: +1 ak_1 -1 ak_5 -1 t_5 -10025 x_(5, 1) >= -10000
 realized4_0_2: +1 ak_2 -1 ak_0 -1 t_0 -10021 x_(0, 2) >= -10000
 realized4_5_2: +1 ak_2 -1 ak_5 -1 t_5 -10033 x_(5, 2) >= -10000
 realized4_6_2: +1 ak_2 -1 ak_6 -1 t_6 -10023 x_(6, 2) >= -10000
 realized4_1_2: +1 ak_2 -1 ak_1 -1 t_1 -10036 x_(1, 2) >= -10000
 realized4_3_2: +1 ak_2 -1 ak_3 -1 t_3 -10024 x_(3, 2) >= -10000
 realized4_4_2: +1 ak_2 -1 ak_4 -1 t_4 -10046 x_(4, 2) >= -10000
 realized4_5_2: +1 ak_2 -1 ak_5 -1 t_5 -10033 x_(5, 2) >= -10000
 realized4_0_3: +1 ak_3 -1 ak_0 -1 t_0 -10047 x_(0, 3) >= -10000
 realized4_6_3: +1 ak_3 -1 ak_6 -1 t_6 -10039 x_(6, 3) >= -10000
 realized4_1_3: +1 ak_3 -1 ak_1 -1 t_1 -10032 x_(1, 3) >= -10000
 realized4_4_3: +1 ak_3 -1 ak_4 -1 t_4 -10036 x_(4, 3) >= -10000
 realized4_2_3: +1 ak_3 -1 ak_2 -1 t_2 -10031 x_(2, 3) >= -10000
 realized4_0_4: +1 ak_4 -1 ak_0 -1 t_0 -10029 x_(0, 4) >= -10000
 realized4_5_4: +1 ak_4 -1 ak_5 -1 t_5 -10043 x_(5, 4) >= -10000
 realized4_6_4: +1 ak_4 -1 ak_6 -1 t_6 -10039 x_(6, 4) >= -10000
 realized4_1_4: +1 ak_4 -1 ak_1 -1 t_1 -10039 x_(1, 4) >= -10000
 realized4_6_4: +1 ak_4 -1 ak_6 -1 t_6 -10039 x_(6, 4) >= -10000
 realized4_3_4: +1 ak_4 -1 ak_3 -1 t_3 -10023 x_(3, 4) >= -10000
 realized4_0_5: +1 ak_5 -1 ak_0 -1 t_0 -10022 x_(0, 5) >= -10000
 realized4_3_5: +1 ak_5 -1 ak_3 -1 t_3 -10011 x_(3, 5) >= -10000
 realized4_4_5: +1 ak_5 -1 ak_4 -1 t_4 -10031 x_(4, 5) >= -10000
 realized4_6_5: +1 ak_5 -1 ak_6 -1 t_6 -10018 x_(6, 5) >= -10000
 realized4_0_6: +1 ak_6 -1 ak_0 -1 t_0 -10036 x_(0, 6) >= -10000
 realized4_1_6: +1 ak_6 -1 ak_1 -1 t_1 -10030 x_(1, 6) >= -10000
 realized4_3_6: +1 ak_6 -1 ak_3 -1 t_3 -10026 x_(3, 6) >= -10000
 realized4_4_6: +1 ak_6 -1 ak_4 -1 t_4 -10048 x_(4, 6) >= -10000
 realized4_5_6: +1 ak_6 -1 ak_5 -1 t_5 -10050 x_(5, 6) >= -10000
 realized4_1_7: +1 ak_7 -1 ak_1 -1 t_1 -10026 x_(1, 7) >= -10000
 realized4_2_7: +1 ak_7 -1 ak_2 -1 t_2 -10044 x_(2, 7) >= -10000
 realized4_3_7: +1 ak_7 -1 ak_3 -1 t_3 -10025 x_(3, 7) >= -10000
 realized4_4_7: +1 ak_7 -1 ak_4 -1 t_4 -10050 x_(4, 7) >= -10000
 realized4_5_7: +1 ak_7 -1 ak_5 -1 t_5 -10041 x_(5, 7) >= -10000
 realized4_6_7: +1 ak_7 -1 ak_6 -1 t_6 -10032 x_(6, 7) >= -10000
 realized5_5_1_0: +1 ad_(1, 0) -1 ak_5 -10006 y_(5, 1, 0) >= -10000
 realized5_5_1_1: +1 ad_(1, 1) -1 ak_5 -10006 y_(5, 1, 1) >= -10000
 realized5_5_2_0: +1 ad_(2, 0) -1 ak_5 -10007 y_(5, 2, 0) >= -10000
 realized5_5_2_1: +1 ad_(2, 1) -1 ak_5 -10007 y_(5, 2, 1) >= -10000
 realized5_5_3_0: +1 ad_(3, 0) -1 ak_5 -10002 y_(5, 3, 0) >= -10000
 realized5_5_3_1: +1 ad_(3, 1) -1 ak_5 -10002 y_(5, 3, 1) >= -10000
 realized5_5_4_0: +1 ad_(4, 0) -1 ak_5 -10002 y_(5, 4, 0) >= -10000
 realized5_5_4_1: +1 ad_(4, 1) -1 ak_5 -10002 y_(5, 4, 1) >= -10000
 realized5_6_1_0: +1 ad_(1, 0) -1 ak_6 -10008 y_(6, 1, 0) >= -10000
 realized5_6_1_1: +1 ad_(1, 1) -1 ak_6 -10008 y_(6, 1, 1) >= -10000
 realized5_6_2_0: +1 ad_(2, 0) -1 ak_6 -10003 y_(6, 2, 0) >= -10000
 realized5_6_2_1: +1 ad_(2, 1) -1 ak_6 -10003 y_(6, 2, 1) >= -10000
 realized5_6_3_0: +1 ad_(3, 0) -1 ak_6 -10002 y_(6, 3, 0) >= -10000
 realized5_6_3_1: +1 ad_(3, 1) -1 ak_6 -10002 y_(6, 3, 1) >= -10000
 realized5_6_4_0: +1 ad_(4, 0) -1 ak_6 -10003 y_(6, 4, 0) >= -10000
 realized5_6_4_1: +1 ad_(4, 1) -1 ak_6 -10003 y_(6, 4, 1) >= -10000
 bind_ub_(5, 1): +1 x_(5, 1) <= +0
 bind_lb_(5, 1): +1 x_(5, 1) >= +0
 bind_ub_(5, 6): +1 x_(5, 6) <= +1
 bind_lb_(5, 6): +1 x_(5, 6) >= +1
 bind_ub_(6, 7): +1 x_(6, 7) <= +1
 bind_lb_(6, 7): +1 x_(6, 7) >= +1
 bind_ub_(6, 2): +1 x_(6, 2) <= +0
 bind_lb_(6, 2): +1 x_(6, 2) >= +0
 bind_ub_(6, 3): +1 x_(6, 3) <= +0
 bind_lb_(6, 3): +1 x_(6, 3) >= +0
 bind_ub_(6, 4): +1 x_(6, 4) <= +0
 bind_lb_(6, 4): +1 x_(6, 4) >= +0
 bind_lb_(0, 1): +1 x_(0, 1) >= +0
 bind_ub_(0, 1): +1 x_(0, 1) <= +0
 bind_lb_(0, 2): +1 x_(0, 2) >= +0
 bind_ub_(0, 2): +1 x_(0, 2) <= +0
 bind_lb_(0, 3): +1 x_(0, 3) >= +0
 bind_ub_(0, 3): +1 x_(0, 3) <= +0
 bind_lb_(0, 4): +1 x_(0, 4) >= +1
 bind_ub_(0, 4): +1 x_(0, 4) <= +1
 bind_lb_(0, 5): +1 x_(0, 5) >= +0
 bind_ub_(0, 5): +1 x_(0, 5) <= +0
 bind_lb_(0, 6): +1 x_(0, 6) >= +0
 bind_ub_(0, 6): +1 x_(0, 6) <= +0
 bind_lb_(1, 7): +1 x_(1, 7) >= +0
 bind_ub_(1, 7): +1 x_(1, 7) <= +0
 bind_lb_(1, 2): +1 x_(1, 2) >= +0
 bind_ub_(1, 2): +1 x_(1, 2) <= +0
 bind_lb_(1, 3): +1 x_(1, 3) >= +0
 bind_ub_(1, 3): +1 x_(1, 3) <= +0
 bind_lb_(1, 4): +1 x_(1, 4) >= +0
 bind_ub_(1, 4): +1 x_(1, 4) <= +0
 bind_lb_(1, 6): +1 x_(1, 6) >= +0
 bind_ub_(1, 6): +1 x_(1, 6) <= +0
 bind_lb_(2, 7): +1 x_(2, 7) >= +0
 bind_ub_(2, 7): +1 x_(2, 7) <= +0
 bind_lb_(2, 3): +1 x_(2, 3) >= +0
 bind_ub_(2, 3): +1 x_(2, 3) <= +0
 bind_lb_(3, 7): +1 x_(3, 7) >= +0
 bind_ub_(3, 7): +1 x_(3, 7) <= +0
 bind_lb_(3, 2): +1 x_(3, 2) >= +0
 bind_ub_(3, 2): +1 x_(3, 2) <= +0
 bind_lb_(3, 5): +1 x_(3, 5) >= +0
 bind_ub_(3, 5): +1 x_(3, 5) <= +0
 bind_lb_(3, 6): +1 x_(3, 6) >= +0
 bind_ub_(3, 6): +1 x_(3, 6) <= +0
 bind_lb_(3, 4): +1 x_(3, 4) >= +0
 bind_ub_(3, 4): +1 x_(3, 4) <= +0
 bind_lb_(4, 7): +1 x_(4, 7) >= +0
 bind_ub_(4, 7): +1 x_(4, 7) <= +0
 bind_lb_(4, 1): +1 x_(4, 1) >= +0
 bind_ub_(4, 1): +1 x_(4, 1) <= +0
 bind_lb_(4, 2): +1 x_(4, 2) >= +0
 bind_ub_(4, 2): +1 x_(4, 2) <= +0
 bind_lb_(4, 3): +1 x_(4, 3) >= +0
 bind_ub_(4, 3): +1 x_(4, 3) <= +0
 bind_lb_(4, 5): +1 x_(4, 5) >= +1
 bind_ub_(4, 5): +1 x_(4, 5) <= +1
 bind_lb_(4, 6): +1 x_(4, 6) >= +0
 bind_ub_(4, 6): +1 x_(4, 6) <= +0
 bind_lb_(5, 7): +1 x_(5, 7) >= +0
 bind_ub_(5, 7): +1 x_(5, 7) <= +0
 bind_lb_(5, 2): +1 x_(5, 2) >= +0
 bind_ub_(5, 2): +1 x_(5, 2) <= +0
 bind_lb_(5, 4): +1 x_(5, 4) >= +0
 bind_ub_(5, 4): +1 x_(5, 4) <= +0
 bind_lb_(6, 5): +1 x_(6, 5) >= +0
 bind_ub_(6, 5): +1 x_(6, 5) <= +0
Bounds
 0 <= y_(5, 1, 0) <= 1
 0 <= y_(5, 1, 1) <= 1
 0 <= y_(5, 1, 2) <= 1
 0 <= y_(5, 1, 3) <= 1
 0 <= y_(5, 2, 0) <= 1
 0 <= y_(5, 2, 1) <= 1
 0 <= y_(5, 2, 2) <= 1
 0 <= y_(5, 2, 3) <= 1
 0 <= y_(5, 3, 0) <= 1
 0 <= y_(5, 3, 1) <= 1
 0 <= y_(5, 3, 2) <= 1
 0 <= y_(5, 3, 3) <= 1
 0 <= y_(5, 4, 0) <= 1
 0 <= y_(5, 4, 1) <= 1
 0 <= y_(5, 4, 2) <= 1
 0 <= y_(5, 4, 3) <= 1
 0 <= y_(6, 1, 0) <= 1
 0 <= y_(6, 1, 1) <= 1
 0 <= y_(6, 1, 2) <= 1
 0 <= y_(6, 1, 3) <= 1
 0 <= y_(6, 2, 0) <= 1
 0 <= y_(6, 2, 1) <= 1
 0 <= y_(6, 2, 2) <= 1
 0 <= y_(6, 2, 3) <= 1
 0 <= y_(6, 3, 0) <= 1
 0 <= y_(6, 3, 1) <= 1
 0 <= y_(6, 3, 2) <= 1
 0 <= y_(6, 3, 3) <= 1
 0 <= y_(6, 4, 0) <= 1
 0 <= y_(6, 4, 1) <= 1
 0 <= y_(6, 4, 2) <= 1
 0 <= y_(6, 4, 3) <= 1
Binaries
 y_(5, 1, 0) y_(5, 1, 1) y_(5, 1, 2) y_(5, 1, 3) y_(5, 2, 0) y_(5, 2, 1) y_(5, 2, 2) y_(5, 2, 3) y_(5, 3, 0)
 y_(5, 3, 1) y_(5, 3, 2) y_(5, 3, 3) y_(5, 4, 0) y_(5, 4, 1) y_(5, 4, 2) y_(5, 4, 3) y_(6, 1, 0) y_(6, 1, 1)
 y_(6, 1, 2) y_(6, 1, 3) y_(6, 2, 0) y_(6, 2, 1) y_(6, 2, 2) y_(6, 2, 3) y_(6, 3, 0) y_(6, 3, 1) y_(6, 3, 2)
 y_(6, 3, 3) y_(6, 4, 0) y_(6, 4, 1) y_(6, 4, 2) y_(6, 4, 3)
End
