\ Model model
\ LP format - for model browsing. Use MPS format to capture full model detail.
Minimize
  - 0.5533333333333333 x_(0,_1) - 0.3633333333333334 x_(0,_2)
   - 0.6233333333333334 x_(0,_3) - 0.4433333333333334 x_(0,_4)
   - 0.3633333333333334 x_(1,_2) - 0.6233333333333334 x_(1,_3)
   - 0.4433333333333334 x_(1,_4) - 0.6233333333333334 x_(2,_3)
   - 0.3633333333333334 x_(3,_2) - 0.4433333333333334 x_(3,_4)
   - 0.5533333333333333 x_(4,_1) - 0.3633333333333334 x_(4,_2)
   - 0.6233333333333334 x_(4,_3) + 0 x_(5,_2) - 0.4433333333333334 x_(5,_4)
   - 0.5533333333333333 x_(5,_1) - 0.7266666666666668 x_(5,_2)
   - 0.3633333333333334 x_(6,_2) - 0.6233333333333334 x_(6,_3) + 0 x_(6,_4)
   - 0.8866666666666667 x_(6,_4) + 0 wk_7 - 0.5533333333333333 y_(5,_1,_0)
   - 0.5533333333333333 y_(5,_1,_1) + 0 y_(5,_1,_2) + 0 y_(5,_1,_3)
   - 0.3633333333333334 y_(5,_2,_0) - 0.3633333333333334 y_(5,_2,_1)
   + 0 y_(5,_2,_2) + 0 y_(5,_2,_3) - 0.6233333333333334 y_(5,_3,_0)
   - 0.6233333333333334 y_(5,_3,_1) + 0 y_(5,_3,_2) + 0 y_(5,_3,_3)
   - 0.4433333333333334 y_(5,_4,_0) - 0.4433333333333334 y_(5,_4,_1)
   + 0 y_(5,_4,_2) + 0 y_(5,_4,_3) - 0.5533333333333333 y_(6,_1,_0)
   - 0.5533333333333333 y_(6,_1,_1) + 0 y_(6,_1,_2) + 0 y_(6,_1,_3)
   - 0.3633333333333334 y_(6,_2,_0) - 0.3633333333333334 y_(6,_2,_1)
   + 0 y_(6,_2,_2) + 0 y_(6,_2,_3) - 0.6233333333333334 y_(6,_3,_0)
   - 0.6233333333333334 y_(6,_3,_1) + 0 y_(6,_3,_2) + 0 y_(6,_3,_3)
   - 0.4433333333333334 y_(6,_4,_0) - 0.4433333333333334 y_(6,_4,_1)
   + 0 y_(6,_4,_2) + 0 y_(6,_4,_3) + 0 ad_(5,_0) + 0 ad_(5,_1)
   + 0 ad_(6,_0) + 0 ad_(6,_1) + 0 ad_(7,_0) + 0 ad_(7,_1) + 0.01 a_1
   + 0.01 a_2 + 0.01 a_3 + 0.01 a_4 + 0.1533333333333334 Constant
Subject To
 conserv1: x_(0,_1) + x_(0,_2) + x_(0,_3) + x_(0,_4) + x_(0,_5) + x_(0,_6)
   - x_(1,_7) - x_(2,_7) - x_(3,_7) - x_(4,_7) - x_(5,_7) - x_(6,_7) = 0
 conserv2_1: - x_(0,_1) + x_(1,_7) + x_(1,_2) + x_(1,_3) + x_(1,_4)
   + x_(1,_6) - x_(4,_1) - x_(5,_1) = 0
 conserv2_2: - x_(0,_2) - x_(1,_2) + x_(2,_7) + x_(2,_3) - x_(3,_2)
   - x_(4,_2) - 2 x_(5,_2) - x_(6,_2) = 0
 conserv2_3: - x_(0,_3) - x_(1,_3) - x_(2,_3) + x_(3,_7) + x_(3,_2)
   + x_(3,_5) + x_(3,_6) + x_(3,_4) - x_(4,_3) - x_(6,_3) = 0
 conserv2_4: - x_(0,_4) - x_(1,_4) - x_(3,_4) + x_(4,_7) + x_(4,_1)
   + x_(4,_2) + x_(4,_3) + x_(4,_5) + x_(4,_6) - x_(5,_4) - 2 x_(6,_4) = 0
 conserv2_5: - x_(0,_5) - x_(3,_5) - x_(4,_5) + x_(5,_7) + x_(5,_4)
   + x_(5,_1) + 2 x_(5,_2) + x_(5,_6) - x_(6,_5) = 0
 conserv2_6: - x_(0,_6) - x_(1,_6) - x_(3,_6) - x_(4,_6) - x_(5,_6)
   + x_(6,_7) + x_(6,_2) + x_(6,_3) + 2 x_(6,_4) + x_(6,_5) = 0
 conserv3: x_(0,_1) + x_(0,_2) + x_(0,_3) + x_(0,_4) + x_(0,_5) + x_(0,_6)
   = 1
 payload_1: - 100000 x_(0,_1) - wk_0 + wk_1 >= -99995.05675781269
 payload_1: - 100000 x_(4,_1) + wk_1 - wk_4 >= -99995.05675781269
 payload_1: - 100000 x_(5,_1) + wk_1 - wk_5 >= -99995.05675781269
 payload_2: - 100000 x_(0,_2) - wk_0 + wk_2 >= -99996.87883271163
 payload_2: - 100000 x_(5,_2) + wk_2 - wk_5 >= -99996.87883271163
 payload_2: - 100000 x_(6,_2) + wk_2 - wk_6 >= -99996.87883271163
 payload_2: - 100000 x_(1,_2) - wk_1 + wk_2 >= -99996.87883271163
 payload_2: - 100000 x_(3,_2) + wk_2 - wk_3 >= -99996.87883271163
 payload_2: - 100000 x_(4,_2) + wk_2 - wk_4 >= -99996.87883271163
 payload_2: - 100000 x_(5,_2) + wk_2 - wk_5 >= -99996.87883271163
 payload_3: - 100000 x_(0,_3) - wk_0 + wk_3 >= -99996.94309651306
 payload_3: - 100000 x_(6,_3) + wk_3 - wk_6 >= -99996.94309651306
 payload_3: - 100000 x_(1,_3) - wk_1 + wk_3 >= -99996.94309651306
 payload_3: - 100000 x_(4,_3) + wk_3 - wk_4 >= -99996.94309651306
 payload_3: - 100000 x_(2,_3) - wk_2 + wk_3 >= -99996.94309651306
 payload_4: - 100000 x_(0,_4) - wk_0 + wk_4 >= -99997.23917894642
 payload_4: - 100000 x_(5,_4) + wk_4 - wk_5 >= -99997.23917894642
 payload_4: - 100000 x_(6,_4) + wk_4 - wk_6 >= -99997.23917894642
 payload_4: - 100000 x_(1,_4) - wk_1 + wk_4 >= -99997.23917894642
 payload_4: - 100000 x_(6,_4) + wk_4 - wk_6 >= -99997.23917894642
 payload_4: - 100000 x_(3,_4) - wk_3 + wk_4 >= -99997.23917894642
 payload_5: - 100000 x_(0,_5) - wk_0 + wk_5 >= -99999
 payload_5: - 100000 x_(3,_5) - wk_3 + wk_5 >= -99999
 payload_5: - 100000 x_(4,_5) - wk_4 + wk_5 >= -99999
 payload_5: - 100000 x_(6,_5) + wk_5 - wk_6 >= -99999
 payload_6: - 100000 x_(0,_6) - wk_0 + wk_6 >= -99999
 payload_6: - 100000 x_(1,_6) - wk_1 + wk_6 >= -99999
 payload_6: - 100000 x_(3,_6) - wk_3 + wk_6 >= -99999
 payload_6: - 100000 x_(4,_6) - wk_4 + wk_6 >= -99999
 payload_6: - 100000 x_(5,_6) - wk_5 + wk_6 >= -99999
 servonce_1: x_(0,_1) + x_(4,_1) + x_(5,_1) + y_(5,_1,_0) + y_(5,_1,_1)
   + y_(6,_1,_0) + y_(6,_1,_1) <= 1
 servonce_2: x_(0,_2) + x_(1,_2) + x_(3,_2) + x_(4,_2) + 2 x_(5,_2)
   + x_(6,_2) + y_(5,_2,_0) + y_(5,_2,_1) + y_(6,_2,_0) + y_(6,_2,_1) <= 1
 servonce_3: x_(0,_3) + x_(1,_3) + x_(2,_3) + x_(4,_3) + x_(6,_3)
   + y_(5,_3,_0) + y_(5,_3,_1) + y_(6,_3,_0) + y_(6,_3,_1) <= 1
 servonce_4: x_(0,_4) + x_(1,_4) + x_(3,_4) + x_(5,_4) + 2 x_(6,_4)
   + y_(5,_4,_0) + y_(5,_4,_1) + y_(6,_4,_0) + y_(6,_4,_1) <= 1
 drone_launch_5: - 2 x_(0,_5) - 2 x_(3,_5) - 2 x_(4,_5) - 2 x_(6,_5)
   + y_(5,_1,_0) + y_(5,_1,_1) + y_(5,_2,_0) + y_(5,_2,_1) + y_(5,_3,_0)
   + y_(5,_3,_1) + y_(5,_4,_0) + y_(5,_4,_1) <= 0
 drone_launch_6: - 2 x_(0,_6) - 2 x_(1,_6) - 2 x_(3,_6) - 2 x_(4,_6)
   - 2 x_(5,_6) + y_(6,_1,_0) + y_(6,_1,_1) + y_(6,_2,_0) + y_(6,_2,_1)
   + y_(6,_3,_0) + y_(6,_3,_1) + y_(6,_4,_0) + y_(6,_4,_1) <= 0
 wait1_(5,_1): - 12 y_(5,_1,_0) - 12 y_(5,_1,_1) + t_5 >= 0
 wait1_(5,_2): - 14 y_(5,_2,_0) - 14 y_(5,_2,_1) + t_5 >= 0
 wait1_(5,_3): - 4 y_(5,_3,_0) - 4 y_(5,_3,_1) + t_5 >= 0
 wait1_(5,_4): - 4 y_(5,_4,_0) - 4 y_(5,_4,_1) + t_5 >= 0
 wait1_(6,_1): - 16 y_(6,_1,_0) - 16 y_(6,_1,_1) + t_6 >= 0
 wait1_(6,_2): - 6 y_(6,_2,_0) - 6 y_(6,_2,_1) + t_6 >= 0
 wait1_(6,_3): - 4 y_(6,_3,_0) - 4 y_(6,_3,_1) + t_6 >= 0
 wait1_(6,_4): - 6 y_(6,_4,_0) - 6 y_(6,_4,_1) + t_6 >= 0
 wait2_0: t_0 <= 0
 wait2_1: t_1 <= 0
 wait2_2: t_2 <= 0
 wait2_3: t_3 <= 0
 wait2_4: t_4 <= 0
 wait2_7: t_7 <= 0
 realized1: ad_(0,_0) + ad_(0,_1) + ak_0 <= 0
 realized2_1: a_1 - ak_1 >= 0
 realized2_2: a_2 - ak_2 >= 0
 realized2_3: a_3 - ak_3 >= 0
 realized2_4: a_4 - ak_4 >= 0
 realized3_(1,_0): - ad_(1,_0) + a_1 >= 0
 realized3_(1,_1): - ad_(1,_1) + a_1 >= 0
 realized3_(2,_0): - ad_(2,_0) + a_2 >= 0
 realized3_(2,_1): - ad_(2,_1) + a_2 >= 0
 realized3_(3,_0): - ad_(3,_0) + a_3 >= 0
 realized3_(3,_1): - ad_(3,_1) + a_3 >= 0
 realized3_(4,_0): - ad_(4,_0) + a_4 >= 0
 realized3_(4,_1): - ad_(4,_1) + a_4 >= 0
 realized4_(0,_1): - 100040 x_(0,_1) - t_0 - ak_0 + ak_1 >= -100000
 realized4_(4,_1): - 100030 x_(4,_1) + ak_1 - t_4 - ak_4 >= -100000
 realized4_(5,_1): - 100025 x_(5,_1) + ak_1 - t_5 - ak_5 >= -100000
 realized4_(0,_2): - 100021 x_(0,_2) - t_0 - ak_0 + ak_2 >= -100000
 realized4_(5,_2): - 100033 x_(5,_2) + ak_2 - t_5 - ak_5 >= -100000
 realized4_(6,_2): - 100023 x_(6,_2) + ak_2 - t_6 - ak_6 >= -100000
 realized4_(1,_2): - 100036 x_(1,_2) - t_1 - ak_1 + ak_2 >= -100000
 realized4_(3,_2): - 100024 x_(3,_2) + ak_2 - t_3 - ak_3 >= -100000
 realized4_(4,_2): - 100046 x_(4,_2) + ak_2 - t_4 - ak_4 >= -100000
 realized4_(5,_2): - 100033 x_(5,_2) + ak_2 - t_5 - ak_5 >= -100000
 realized4_(0,_3): - 100047 x_(0,_3) - t_0 - ak_0 + ak_3 >= -100000
 realized4_(6,_3): - 100039 x_(6,_3) + ak_3 - t_6 - ak_6 >= -100000
 realized4_(1,_3): - 100032 x_(1,_3) - t_1 - ak_1 + ak_3 >= -100000
 realized4_(4,_3): - 100036 x_(4,_3) + ak_3 - t_4 - ak_4 >= -100000
 realized4_(2,_3): - 100031 x_(2,_3) - t_2 - ak_2 + ak_3 >= -100000
 realized4_(0,_4): - 100029 x_(0,_4) - t_0 - ak_0 + ak_4 >= -100000
 realized4_(5,_4): - 100043 x_(5,_4) + ak_4 - t_5 - ak_5 >= -100000
 realized4_(6,_4): - 100039 x_(6,_4) + ak_4 - t_6 - ak_6 >= -100000
 realized4_(1,_4): - 100039 x_(1,_4) - t_1 - ak_1 + ak_4 >= -100000
 realized4_(6,_4): - 100039 x_(6,_4) + ak_4 - t_6 - ak_6 >= -100000
 realized4_(3,_4): - 100023 x_(3,_4) - t_3 - ak_3 + ak_4 >= -100000
 realized4_(0,_5): - 100022 x_(0,_5) - t_0 - ak_0 + ak_5 >= -100000
 realized4_(3,_5): - 100011 x_(3,_5) - t_3 - ak_3 + ak_5 >= -100000
 realized4_(4,_5): - 100031 x_(4,_5) - t_4 - ak_4 + ak_5 >= -100000
 realized4_(6,_5): - 100018 x_(6,_5) + ak_5 - t_6 - ak_6 >= -100000
 realized4_(0,_6): - 100036 x_(0,_6) - t_0 - ak_0 + ak_6 >= -100000
 realized4_(1,_6): - 100030 x_(1,_6) - t_1 - ak_1 + ak_6 >= -100000
 realized4_(3,_6): - 100026 x_(3,_6) - t_3 - ak_3 + ak_6 >= -100000
 realized4_(4,_6): - 100048 x_(4,_6) - t_4 - ak_4 + ak_6 >= -100000
 realized4_(5,_6): - 100050 x_(5,_6) - t_5 - ak_5 + ak_6 >= -100000
 realized4_(1,_7): - 100026 x_(1,_7) - t_1 - ak_1 + ak_7 >= -100000
 realized4_(2,_7): - 100044 x_(2,_7) - t_2 - ak_2 + ak_7 >= -100000
 realized4_(3,_7): - 100025 x_(3,_7) - t_3 - ak_3 + ak_7 >= -100000
 realized4_(4,_7): - 100050 x_(4,_7) - t_4 - ak_4 + ak_7 >= -100000
 realized4_(5,_7): - 100041 x_(5,_7) - t_5 - ak_5 + ak_7 >= -100000
 realized4_(6,_7): - 100032 x_(6,_7) - t_6 - ak_6 + ak_7 >= -100000
 realized5_(5,_1,_0): - 100006 y_(5,_1,_0) + ad_(1,_0) - ak_5 >= -100000
 realized5_(5,_1,_1): - 100006 y_(5,_1,_1) + ad_(1,_1) - ak_5 >= -100000
 realized5_(5,_2,_0): - 100007 y_(5,_2,_0) + ad_(2,_0) - ak_5 >= -100000
 realized5_(5,_2,_1): - 100007 y_(5,_2,_1) + ad_(2,_1) - ak_5 >= -100000
 realized5_(5,_3,_0): - 100002 y_(5,_3,_0) + ad_(3,_0) - ak_5 >= -100000
 realized5_(5,_3,_1): - 100002 y_(5,_3,_1) + ad_(3,_1) - ak_5 >= -100000
 realized5_(5,_4,_0): - 100002 y_(5,_4,_0) + ad_(4,_0) - ak_5 >= -100000
 realized5_(5,_4,_1): - 100002 y_(5,_4,_1) + ad_(4,_1) - ak_5 >= -100000
 realized5_(6,_1,_0): - 100008 y_(6,_1,_0) + ad_(1,_0) - ak_6 >= -100000
 realized5_(6,_1,_1): - 100008 y_(6,_1,_1) + ad_(1,_1) - ak_6 >= -100000
 realized5_(6,_2,_0): - 100003 y_(6,_2,_0) + ad_(2,_0) - ak_6 >= -100000
 realized5_(6,_2,_1): - 100003 y_(6,_2,_1) + ad_(2,_1) - ak_6 >= -100000
 realized5_(6,_3,_0): - 100002 y_(6,_3,_0) + ad_(3,_0) - ak_6 >= -100000
 realized5_(6,_3,_1): - 100002 y_(6,_3,_1) + ad_(3,_1) - ak_6 >= -100000
 realized5_(6,_4,_0): - 100003 y_(6,_4,_0) + ad_(4,_0) - ak_6 >= -100000
 realized5_(6,_4,_1): - 100003 y_(6,_4,_1) + ad_(4,_1) - ak_6 >= -100000
Bounds
 wk_0 <= 100
 wk_1 <= 100
 wk_2 <= 100
 wk_3 <= 100
 wk_4 <= 100
 wk_5 <= 100
 wk_6 <= 100
 wk_7 <= 100
 Constant = 1
Binaries
 x_(0,_1) x_(0,_2) x_(0,_3) x_(0,_4) x_(0,_5) x_(0,_6) x_(1,_7) x_(1,_2)
 x_(1,_3) x_(1,_4) x_(1,_6) x_(2,_7) x_(2,_3) x_(3,_7) x_(3,_2) x_(3,_5)
 x_(3,_6) x_(3,_4) x_(4,_7) x_(4,_1) x_(4,_2) x_(4,_3) x_(4,_5) x_(4,_6)
 x_(5,_7) x_(5,_2) x_(5,_4) x_(5,_1) x_(5,_2) x_(5,_6) x_(6,_7) x_(6,_2)
 x_(6,_3) x_(6,_4) x_(6,_4) x_(6,_5) y_(5,_1,_0) y_(5,_1,_1) y_(5,_1,_2)
 y_(5,_1,_3) y_(5,_2,_0) y_(5,_2,_1) y_(5,_2,_2) y_(5,_2,_3) y_(5,_3,_0)
 y_(5,_3,_1) y_(5,_3,_2) y_(5,_3,_3) y_(5,_4,_0) y_(5,_4,_1) y_(5,_4,_2)
 y_(5,_4,_3) y_(6,_1,_0) y_(6,_1,_1) y_(6,_1,_2) y_(6,_1,_3) y_(6,_2,_0)
 y_(6,_2,_1) y_(6,_2,_2) y_(6,_2,_3) y_(6,_3,_0) y_(6,_3,_1) y_(6,_3,_2)
 y_(6,_3,_3) y_(6,_4,_0) y_(6,_4,_1) y_(6,_4,_2) y_(6,_4,_3)
End
