\ Model model
\ LP format - for model browsing. Use MPS format to capture full model detail.
Minimize
  0 t_0 + 0 t_(0,_2) + 0 wk_(0,_2) + 0 t_(0,_3) + 0 wk_(0,_3) + t_1
   + 0 t_(1,_2) + 0 wk_(1,_2) + 0 t_(1,_3) + 0 wk_(1,_3) + t_2 + 0 t_(2,_2)
   + 0 wk_(2,_2) + 0 t_(2,_3) + 0 wk_(2,_3) + t_3 + 0 t_(3,_2)
   + 0 wk_(3,_2) + 0 t_(3,_3) + 0 wk_(3,_3) + t_4 + 0 t_(4,_2)
   + 0 wk_(4,_2) + 0 t_(4,_3) + 0 wk_(4,_3) + t_5 + 0 t_(5,_2)
   + 0 wk_(5,_2) + 0 t_(5,_3) + 0 wk_(5,_3) + t_6 + 0 t_(6,_2)
   + 0 wk_(6,_2) + 0 t_(6,_3) + 0 wk_(6,_3) + t_7 + 0 t_(7,_2)
   + 0 wk_(7,_2) + 0 t_(7,_3) + 0 wk_(7,_3) + t_8 + 0 t_(8,_2)
   + 0 wk_(8,_2) + 0 t_(8,_3) + 0 wk_(8,_3) + 0 t_9 + 0 t_(9,_2)
   + 0 wk_(9,_2) + 0 t_(9,_3) + 0 wk_(9,_3) + 0 t_10 + 0 t_(10,_2)
   + 0 wk_(10,_2) + 0 t_(10,_3) + 0 wk_(10,_3) + 0 t_11 + 0 t_(11,_2)
   + 0 wk_(11,_2) + 0 t_(11,_3) + 0 wk_(11,_3)
Subject To
 conserv1_0: x_(0,_1,_0) + x_(0,_2,_0) + x_(0,_3,_0) + x_(0,_4,_0)
   + x_(0,_5,_0) + x_(0,_6,_0) + x_(0,_7,_0) + x_(0,_8,_0) + x_(0,_9,_0)
   + x_(0,_10,_0) - x_(1,_11,_0) - x_(2,_11,_0) - x_(3,_11,_0)
   - x_(4,_11,_0) - x_(5,_11,_0) - x_(6,_11,_0) - x_(7,_11,_0)
   - x_(8,_11,_0) - x_(9,_11,_0) - x_(10,_11,_0) = 0
 conserv1_1: x_(0,_1,_1) + x_(0,_2,_1) + x_(0,_3,_1) + x_(0,_4,_1)
   + x_(0,_5,_1) + x_(0,_6,_1) + x_(0,_7,_1) + x_(0,_8,_1) + x_(0,_9,_1)
   + x_(0,_10,_1) - x_(1,_11,_1) - x_(2,_11,_1) - x_(3,_11,_1)
   - x_(4,_11,_1) - x_(5,_11,_1) - x_(6,_11,_1) - x_(7,_11,_1)
   - x_(8,_11,_1) - x_(9,_11,_1) - x_(10,_11,_1) = 0
 conserv2_2: - x_(0,_1,_0) + x_(1,_11,_0) + x_(1,_2,_0) + x_(1,_3,_0)
   + x_(1,_4,_0) + x_(1,_7,_0) + x_(1,_8,_0) + x_(1,_9,_0) + x_(1,_10,_0)
   + x_(1,_5,_0) + x_(1,_6,_0) - x_(2,_1,_0) - x_(3,_1,_0) - x_(4,_1,_0)
   - x_(5,_1,_0) - x_(6,_1,_0) - x_(7,_1,_0) - x_(8,_1,_0) - x_(9,_1,_0)
   - x_(10,_1,_0) = 0
 conserv2_3: - x_(0,_1,_1) + x_(1,_11,_1) + x_(1,_2,_1) + x_(1,_3,_1)
   + x_(1,_4,_1) + x_(1,_7,_1) + x_(1,_8,_1) + x_(1,_9,_1) + x_(1,_10,_1)
   + x_(1,_5,_1) + x_(1,_6,_1) - x_(2,_1,_1) - x_(3,_1,_1) - x_(4,_1,_1)
   - x_(5,_1,_1) - x_(6,_1,_1) - x_(7,_1,_1) - x_(8,_1,_1) - x_(9,_1,_1)
   - x_(10,_1,_1) = 0
 conserv2_4: - x_(0,_2,_0) - x_(1,_2,_0) + x_(2,_11,_0) + x_(2,_1,_0)
   + x_(2,_3,_0) + x_(2,_5,_0) + x_(2,_6,_0) + x_(2,_8,_0) + x_(2,_9,_0)
   + x_(2,_10,_0) - x_(3,_2,_0) - x_(5,_2,_0) - x_(6,_2,_0) - x_(8,_2,_0)
   - x_(9,_2,_0) - x_(10,_2,_0) = 0
 conserv2_5: - x_(0,_2,_1) - x_(1,_2,_1) + x_(2,_11,_1) + x_(2,_1,_1)
   + x_(2,_3,_1) + x_(2,_5,_1) + x_(2,_6,_1) + x_(2,_8,_1) + x_(2,_9,_1)
   + x_(2,_10,_1) - x_(3,_2,_1) - x_(5,_2,_1) - x_(6,_2,_1) - x_(8,_2,_1)
   - x_(9,_2,_1) - x_(10,_2,_1) = 0
 conserv2_6: - x_(0,_3,_0) - x_(1,_3,_0) - x_(2,_3,_0) + x_(3,_11,_0)
   + x_(3,_1,_0) + x_(3,_2,_0) + x_(3,_4,_0) + x_(3,_5,_0) + x_(3,_7,_0)
   + x_(3,_9,_0) + x_(3,_10,_0) - x_(4,_3,_0) - x_(5,_3,_0) - x_(7,_3,_0)
   - x_(9,_3,_0) - x_(10,_3,_0) = 0
 conserv2_7: - x_(0,_3,_1) - x_(1,_3,_1) - x_(2,_3,_1) + x_(3,_11,_1)
   + x_(3,_1,_1) + x_(3,_2,_1) + x_(3,_4,_1) + x_(3,_5,_1) + x_(3,_7,_1)
   + x_(3,_9,_1) + x_(3,_10,_1) - x_(4,_3,_1) - x_(5,_3,_1) - x_(7,_3,_1)
   - x_(9,_3,_1) - x_(10,_3,_1) = 0
 conserv2_8: - x_(0,_4,_0) - x_(1,_4,_0) - x_(3,_4,_0) + x_(4,_11,_0)
   + x_(4,_1,_0) + x_(4,_3,_0) + x_(4,_6,_0) + x_(4,_7,_0) + x_(4,_10,_0)
   + x_(4,_9,_0) - x_(6,_4,_0) - x_(7,_4,_0) - x_(9,_4,_0) - x_(10,_4,_0)
   = 0
 conserv2_9: - x_(0,_4,_1) - x_(1,_4,_1) - x_(3,_4,_1) + x_(4,_11,_1)
   + x_(4,_1,_1) + x_(4,_3,_1) + x_(4,_6,_1) + x_(4,_7,_1) + x_(4,_10,_1)
   + x_(4,_9,_1) - x_(6,_4,_1) - x_(7,_4,_1) - x_(9,_4,_1) - x_(10,_4,_1)
   = 0
 conserv2_10: - x_(0,_5,_0) - x_(1,_5,_0) - x_(2,_5,_0) - x_(3,_5,_0)
   + x_(5,_11,_0) + x_(5,_2,_0) + x_(5,_3,_0) + x_(5,_1,_0) + x_(5,_7,_0)
   + x_(5,_8,_0) + x_(5,_9,_0) + x_(5,_10,_0) + x_(5,_6,_0) - x_(6,_5,_0)
   - x_(7,_5,_0) - x_(8,_5,_0) - x_(9,_5,_0) - x_(10,_5,_0) = 0
 conserv2_11: - x_(0,_5,_1) - x_(1,_5,_1) - x_(2,_5,_1) - x_(3,_5,_1)
   + x_(5,_11,_1) + x_(5,_2,_1) + x_(5,_3,_1) + x_(5,_1,_1) + x_(5,_7,_1)
   + x_(5,_8,_1) + x_(5,_9,_1) + x_(5,_10,_1) + x_(5,_6,_1) - x_(6,_5,_1)
   - x_(7,_5,_1) - x_(8,_5,_1) - x_(9,_5,_1) - x_(10,_5,_1) = 0
 conserv2_12: - x_(0,_6,_0) - x_(1,_6,_0) - x_(2,_6,_0) - x_(4,_6,_0)
   - x_(5,_6,_0) + x_(6,_11,_0) + x_(6,_2,_0) + x_(6,_4,_0) + x_(6,_1,_0)
   + x_(6,_5,_0) + x_(6,_7,_0) + x_(6,_9,_0) + x_(6,_10,_0) - x_(7,_6,_0)
   - x_(9,_6,_0) - x_(10,_6,_0) = 0
 conserv2_13: - x_(0,_6,_1) - x_(1,_6,_1) - x_(2,_6,_1) - x_(4,_6,_1)
   - x_(5,_6,_1) + x_(6,_11,_1) + x_(6,_2,_1) + x_(6,_4,_1) + x_(6,_1,_1)
   + x_(6,_5,_1) + x_(6,_7,_1) + x_(6,_9,_1) + x_(6,_10,_1) - x_(7,_6,_1)
   - x_(9,_6,_1) - x_(10,_6,_1) = 0
 conserv2_14: - x_(0,_7,_0) - x_(1,_7,_0) - x_(3,_7,_0) - x_(4,_7,_0)
   - x_(5,_7,_0) - x_(6,_7,_0) + x_(7,_11,_0) + x_(7,_1,_0) + x_(7,_3,_0)
   + x_(7,_4,_0) + x_(7,_5,_0) + x_(7,_6,_0) + x_(7,_8,_0) + x_(7,_9,_0)
   + x_(7,_10,_0) - x_(8,_7,_0) - x_(9,_7,_0) - x_(10,_7,_0) = 0
 conserv2_15: - x_(0,_7,_1) - x_(1,_7,_1) - x_(3,_7,_1) - x_(4,_7,_1)
   - x_(5,_7,_1) - x_(6,_7,_1) + x_(7,_11,_1) + x_(7,_1,_1) + x_(7,_3,_1)
   + x_(7,_4,_1) + x_(7,_5,_1) + x_(7,_6,_1) + x_(7,_8,_1) + x_(7,_9,_1)
   + x_(7,_10,_1) - x_(8,_7,_1) - x_(9,_7,_1) - x_(10,_7,_1) = 0
 conserv2_16: - x_(0,_8,_0) - x_(1,_8,_0) - x_(2,_8,_0) - x_(5,_8,_0)
   - x_(7,_8,_0) + x_(8,_11,_0) + x_(8,_1,_0) + x_(8,_2,_0) + x_(8,_5,_0)
   + x_(8,_7,_0) + x_(8,_10,_0) - x_(9,_8,_0) - x_(10,_8,_0) = 0
 conserv2_17: - x_(0,_8,_1) - x_(1,_8,_1) - x_(2,_8,_1) - x_(5,_8,_1)
   - x_(7,_8,_1) + x_(8,_11,_1) + x_(8,_1,_1) + x_(8,_2,_1) + x_(8,_5,_1)
   + x_(8,_7,_1) + x_(8,_10,_1) - x_(9,_8,_1) - x_(10,_8,_1) = 0
 conserv2_18: - x_(0,_9,_0) - x_(1,_9,_0) - x_(2,_9,_0) - x_(3,_9,_0)
   - x_(4,_9,_0) - x_(5,_9,_0) - x_(6,_9,_0) - x_(7,_9,_0) + x_(9,_11,_0)
   + x_(9,_1,_0) + x_(9,_2,_0) + x_(9,_3,_0) + x_(9,_4,_0) + x_(9,_5,_0)
   + x_(9,_6,_0) + x_(9,_7,_0) + x_(9,_8,_0) + x_(9,_10,_0) - x_(10,_9,_0)
   = 0
 conserv2_19: - x_(0,_9,_1) - x_(1,_9,_1) - x_(2,_9,_1) - x_(3,_9,_1)
   - x_(4,_9,_1) - x_(5,_9,_1) - x_(6,_9,_1) - x_(7,_9,_1) + x_(9,_11,_1)
   + x_(9,_1,_1) + x_(9,_2,_1) + x_(9,_3,_1) + x_(9,_4,_1) + x_(9,_5,_1)
   + x_(9,_6,_1) + x_(9,_7,_1) + x_(9,_8,_1) + x_(9,_10,_1) - x_(10,_9,_1)
   = 0
 conserv2_20: - x_(0,_10,_0) - x_(1,_10,_0) - x_(2,_10,_0) - x_(3,_10,_0)
   - x_(4,_10,_0) - x_(5,_10,_0) - x_(6,_10,_0) - x_(7,_10,_0)
   - x_(8,_10,_0) - x_(9,_10,_0) + x_(10,_11,_0) + x_(10,_1,_0)
   + x_(10,_2,_0) + x_(10,_3,_0) + x_(10,_4,_0) + x_(10,_5,_0)
   + x_(10,_6,_0) + x_(10,_7,_0) + x_(10,_8,_0) + x_(10,_9,_0) = 0
 conserv2_21: - x_(0,_10,_1) - x_(1,_10,_1) - x_(2,_10,_1) - x_(3,_10,_1)
   - x_(4,_10,_1) - x_(5,_10,_1) - x_(6,_10,_1) - x_(7,_10,_1)
   - x_(8,_10,_1) - x_(9,_10,_1) + x_(10,_11,_1) + x_(10,_1,_1)
   + x_(10,_2,_1) + x_(10,_3,_1) + x_(10,_4,_1) + x_(10,_5,_1)
   + x_(10,_6,_1) + x_(10,_7,_1) + x_(10,_8,_1) + x_(10,_9,_1) = 0
 launch_once_0: x_(0,_1,_0) + x_(0,_2,_0) + x_(0,_3,_0) + x_(0,_4,_0)
   + x_(0,_5,_0) + x_(0,_6,_0) + x_(0,_7,_0) + x_(0,_8,_0) + x_(0,_9,_0)
   + x_(0,_10,_0) <= 1
 launch_once_1: x_(0,_1,_1) + x_(0,_2,_1) + x_(0,_3,_1) + x_(0,_4,_1)
   + x_(0,_5,_1) + x_(0,_6,_1) + x_(0,_7,_1) + x_(0,_8,_1) + x_(0,_9,_1)
   + x_(0,_10,_1) <= 1
 servonce_0: x_(0,_1,_0) + x_(0,_1,_1) + y_(0,_1,_0) + y_(0,_1,_1)
   + y_(0,_1,_2) + y_(0,_1,_3) + x_(2,_1,_0) + x_(2,_1,_1) + y_(2,_1,_0)
   + y_(2,_1,_1) + y_(2,_1,_2) + y_(2,_1,_3) + x_(3,_1,_0) + x_(3,_1,_1)
   + y_(3,_1,_0) + y_(3,_1,_1) + y_(3,_1,_2) + y_(3,_1,_3) + x_(4,_1,_0)
   + x_(4,_1,_1) + y_(4,_1,_0) + y_(4,_1,_1) + y_(4,_1,_2) + y_(4,_1,_3)
   + x_(5,_1,_0) + x_(5,_1,_1) + y_(5,_1,_0) + y_(5,_1,_1) + y_(5,_1,_2)
   + y_(5,_1,_3) + x_(6,_1,_0) + x_(6,_1,_1) + y_(6,_1,_0) + y_(6,_1,_1)
   + y_(6,_1,_2) + y_(6,_1,_3) + x_(7,_1,_0) + x_(7,_1,_1) + y_(7,_1,_0)
   + y_(7,_1,_1) + y_(7,_1,_2) + y_(7,_1,_3) + x_(8,_1,_0) + x_(8,_1,_1)
   + y_(8,_1,_0) + y_(8,_1,_1) + y_(8,_1,_2) + y_(8,_1,_3) + x_(9,_1,_0)
   + x_(9,_1,_1) + y_(9,_1,_0) + y_(9,_1,_1) + y_(9,_1,_2) + y_(9,_1,_3)
   + x_(10,_1,_0) + x_(10,_1,_1) + y_(10,_1,_0) + y_(10,_1,_1)
   + y_(10,_1,_2) + y_(10,_1,_3) = 1
 servonce_1: x_(0,_2,_0) + x_(0,_2,_1) + y_(0,_2,_0) + y_(0,_2,_1)
   + y_(0,_2,_2) + y_(0,_2,_3) + x_(1,_2,_0) + x_(1,_2,_1) + y_(1,_2,_0)
   + y_(1,_2,_1) + y_(1,_2,_2) + y_(1,_2,_3) + x_(3,_2,_0) + x_(3,_2,_1)
   + y_(3,_2,_0) + y_(3,_2,_1) + y_(3,_2,_2) + y_(3,_2,_3) + x_(5,_2,_0)
   + x_(5,_2,_1) + y_(5,_2,_0) + y_(5,_2,_1) + y_(5,_2,_2) + y_(5,_2,_3)
   + x_(6,_2,_0) + x_(6,_2,_1) + y_(6,_2,_0) + y_(6,_2,_1) + y_(6,_2,_2)
   + y_(6,_2,_3) + x_(8,_2,_0) + x_(8,_2,_1) + y_(8,_2,_0) + y_(8,_2,_1)
   + y_(8,_2,_2) + y_(8,_2,_3) + x_(9,_2,_0) + x_(9,_2,_1) + y_(9,_2,_0)
   + y_(9,_2,_1) + y_(9,_2,_2) + y_(9,_2,_3) + x_(10,_2,_0) + x_(10,_2,_1)
   + y_(10,_2,_0) + y_(10,_2,_1) + y_(10,_2,_2) + y_(10,_2,_3) = 1
 servonce_2: x_(0,_3,_0) + x_(0,_3,_1) + y_(0,_3,_0) + y_(0,_3,_1)
   + y_(0,_3,_2) + y_(0,_3,_3) + x_(1,_3,_0) + x_(1,_3,_1) + y_(1,_3,_0)
   + y_(1,_3,_1) + y_(1,_3,_2) + y_(1,_3,_3) + x_(2,_3,_0) + x_(2,_3,_1)
   + y_(2,_3,_0) + y_(2,_3,_1) + y_(2,_3,_2) + y_(2,_3,_3) + x_(4,_3,_0)
   + x_(4,_3,_1) + y_(4,_3,_0) + y_(4,_3,_1) + y_(4,_3,_2) + y_(4,_3,_3)
   + x_(5,_3,_0) + x_(5,_3,_1) + y_(5,_3,_0) + y_(5,_3,_1) + y_(5,_3,_2)
   + y_(5,_3,_3) + x_(7,_3,_0) + x_(7,_3,_1) + y_(7,_3,_0) + y_(7,_3,_1)
   + y_(7,_3,_2) + y_(7,_3,_3) + x_(9,_3,_0) + x_(9,_3,_1) + y_(9,_3,_0)
   + y_(9,_3,_1) + y_(9,_3,_2) + y_(9,_3,_3) + x_(10,_3,_0) + x_(10,_3,_1)
   + y_(10,_3,_0) + y_(10,_3,_1) + y_(10,_3,_2) + y_(10,_3,_3) = 1
 servonce_3: x_(0,_4,_0) + x_(0,_4,_1) + y_(0,_4,_0) + y_(0,_4,_1)
   + y_(0,_4,_2) + y_(0,_4,_3) + x_(1,_4,_0) + x_(1,_4,_1) + y_(1,_4,_0)
   + y_(1,_4,_1) + y_(1,_4,_2) + y_(1,_4,_3) + x_(3,_4,_0) + x_(3,_4,_1)
   + y_(3,_4,_0) + y_(3,_4,_1) + y_(3,_4,_2) + y_(3,_4,_3) + x_(6,_4,_0)
   + x_(6,_4,_1) + y_(6,_4,_0) + y_(6,_4,_1) + y_(6,_4,_2) + y_(6,_4,_3)
   + x_(7,_4,_0) + x_(7,_4,_1) + y_(7,_4,_0) + y_(7,_4,_1) + y_(7,_4,_2)
   + y_(7,_4,_3) + x_(9,_4,_0) + x_(9,_4,_1) + y_(9,_4,_0) + y_(9,_4,_1)
   + y_(9,_4,_2) + y_(9,_4,_3) + x_(10,_4,_0) + x_(10,_4,_1) + y_(10,_4,_0)
   + y_(10,_4,_1) + y_(10,_4,_2) + y_(10,_4,_3) = 1
 servonce_4: x_(0,_5,_0) + x_(0,_5,_1) + y_(0,_5,_0) + y_(0,_5,_1)
   + y_(0,_5,_2) + y_(0,_5,_3) + x_(1,_5,_0) + x_(1,_5,_1) + y_(1,_5,_0)
   + y_(1,_5,_1) + y_(1,_5,_2) + y_(1,_5,_3) + x_(2,_5,_0) + x_(2,_5,_1)
   + y_(2,_5,_0) + y_(2,_5,_1) + y_(2,_5,_2) + y_(2,_5,_3) + x_(3,_5,_0)
   + x_(3,_5,_1) + y_(3,_5,_0) + y_(3,_5,_1) + y_(3,_5,_2) + y_(3,_5,_3)
   + x_(6,_5,_0) + x_(6,_5,_1) + y_(6,_5,_0) + y_(6,_5,_1) + y_(6,_5,_2)
   + y_(6,_5,_3) + x_(7,_5,_0) + x_(7,_5,_1) + y_(7,_5,_0) + y_(7,_5,_1)
   + y_(7,_5,_2) + y_(7,_5,_3) + x_(8,_5,_0) + x_(8,_5,_1) + y_(8,_5,_0)
   + y_(8,_5,_1) + y_(8,_5,_2) + y_(8,_5,_3) + x_(9,_5,_0) + x_(9,_5,_1)
   + y_(9,_5,_0) + y_(9,_5,_1) + y_(9,_5,_2) + y_(9,_5,_3) + x_(10,_5,_0)
   + x_(10,_5,_1) + y_(10,_5,_0) + y_(10,_5,_1) + y_(10,_5,_2)
   + y_(10,_5,_3) = 1
 servonce_5: x_(0,_6,_0) + x_(0,_6,_1) + y_(0,_6,_0) + y_(0,_6,_1)
   + y_(0,_6,_2) + y_(0,_6,_3) + x_(1,_6,_0) + x_(1,_6,_1) + y_(1,_6,_0)
   + y_(1,_6,_1) + y_(1,_6,_2) + y_(1,_6,_3) + x_(2,_6,_0) + x_(2,_6,_1)
   + y_(2,_6,_0) + y_(2,_6,_1) + y_(2,_6,_2) + y_(2,_6,_3) + x_(4,_6,_0)
   + x_(4,_6,_1) + y_(4,_6,_0) + y_(4,_6,_1) + y_(4,_6,_2) + y_(4,_6,_3)
   + x_(5,_6,_0) + x_(5,_6,_1) + y_(5,_6,_0) + y_(5,_6,_1) + y_(5,_6,_2)
   + y_(5,_6,_3) + x_(7,_6,_0) + x_(7,_6,_1) + y_(7,_6,_0) + y_(7,_6,_1)
   + y_(7,_6,_2) + y_(7,_6,_3) + x_(9,_6,_0) + x_(9,_6,_1) + y_(9,_6,_0)
   + y_(9,_6,_1) + y_(9,_6,_2) + y_(9,_6,_3) + x_(10,_6,_0) + x_(10,_6,_1)
   + y_(10,_6,_0) + y_(10,_6,_1) + y_(10,_6,_2) + y_(10,_6,_3) = 1
 servonce_6: x_(0,_7,_0) + x_(0,_7,_1) + y_(0,_7,_0) + y_(0,_7,_1)
   + y_(0,_7,_2) + y_(0,_7,_3) + x_(1,_7,_0) + x_(1,_7,_1) + y_(1,_7,_0)
   + y_(1,_7,_1) + y_(1,_7,_2) + y_(1,_7,_3) + x_(3,_7,_0) + x_(3,_7,_1)
   + y_(3,_7,_0) + y_(3,_7,_1) + y_(3,_7,_2) + y_(3,_7,_3) + x_(4,_7,_0)
   + x_(4,_7,_1) + y_(4,_7,_0) + y_(4,_7,_1) + y_(4,_7,_2) + y_(4,_7,_3)
   + x_(5,_7,_0) + x_(5,_7,_1) + y_(5,_7,_0) + y_(5,_7,_1) + y_(5,_7,_2)
   + y_(5,_7,_3) + x_(6,_7,_0) + x_(6,_7,_1) + y_(6,_7,_0) + y_(6,_7,_1)
   + y_(6,_7,_2) + y_(6,_7,_3) + x_(8,_7,_0) + x_(8,_7,_1) + y_(8,_7,_0)
   + y_(8,_7,_1) + y_(8,_7,_2) + y_(8,_7,_3) + x_(9,_7,_0) + x_(9,_7,_1)
   + y_(9,_7,_0) + y_(9,_7,_1) + y_(9,_7,_2) + y_(9,_7,_3) + x_(10,_7,_0)
   + x_(10,_7,_1) + y_(10,_7,_0) + y_(10,_7,_1) + y_(10,_7,_2)
   + y_(10,_7,_3) = 1
 servonce_7: x_(0,_8,_0) + x_(0,_8,_1) + y_(0,_8,_0) + y_(0,_8,_1)
   + y_(0,_8,_2) + y_(0,_8,_3) + x_(1,_8,_0) + x_(1,_8,_1) + y_(1,_8,_0)
   + y_(1,_8,_1) + y_(1,_8,_2) + y_(1,_8,_3) + x_(2,_8,_0) + x_(2,_8,_1)
   + y_(2,_8,_0) + y_(2,_8,_1) + y_(2,_8,_2) + y_(2,_8,_3) + x_(5,_8,_0)
   + x_(5,_8,_1) + y_(5,_8,_0) + y_(5,_8,_1) + y_(5,_8,_2) + y_(5,_8,_3)
   + x_(7,_8,_0) + x_(7,_8,_1) + y_(7,_8,_0) + y_(7,_8,_1) + y_(7,_8,_2)
   + y_(7,_8,_3) + x_(9,_8,_0) + x_(9,_8,_1) + y_(9,_8,_0) + y_(9,_8,_1)
   + y_(9,_8,_2) + y_(9,_8,_3) + x_(10,_8,_0) + x_(10,_8,_1) + y_(10,_8,_0)
   + y_(10,_8,_1) + y_(10,_8,_2) + y_(10,_8,_3) = 1
 drone_launch1_0: y_(0,_1,_0) + y_(0,_2,_0) + y_(0,_3,_0) + y_(0,_4,_0)
   + y_(0,_5,_0) + y_(0,_6,_0) + y_(0,_7,_0) + y_(0,_8,_0) + y_(0,_9,_0)
   + y_(0,_10,_0) + y_(1,_11,_0) + y_(1,_2,_0) + y_(1,_3,_0) + y_(1,_4,_0)
   + y_(1,_7,_0) + y_(1,_8,_0) + y_(1,_9,_0) + y_(1,_10,_0) + y_(1,_5,_0)
   + y_(1,_6,_0) + y_(2,_11,_0) + y_(2,_1,_0) + y_(2,_3,_0) + y_(2,_5,_0)
   + y_(2,_6,_0) + y_(2,_8,_0) + y_(2,_9,_0) + y_(2,_10,_0) + y_(3,_11,_0)
   + y_(3,_1,_0) + y_(3,_2,_0) + y_(3,_4,_0) + y_(3,_5,_0) + y_(3,_7,_0)
   + y_(3,_9,_0) + y_(3,_10,_0) + y_(4,_11,_0) + y_(4,_1,_0) + y_(4,_3,_0)
   + y_(4,_6,_0) + y_(4,_7,_0) + y_(4,_10,_0) + y_(4,_9,_0) + y_(5,_11,_0)
   + y_(5,_2,_0) + y_(5,_3,_0) + y_(5,_1,_0) + y_(5,_7,_0) + y_(5,_8,_0)
   + y_(5,_9,_0) + y_(5,_10,_0) + y_(5,_6,_0) + y_(6,_11,_0) + y_(6,_2,_0)
   + y_(6,_4,_0) + y_(6,_1,_0) + y_(6,_5,_0) + y_(6,_7,_0) + y_(6,_9,_0)
   + y_(6,_10,_0) + y_(7,_11,_0) + y_(7,_1,_0) + y_(7,_3,_0) + y_(7,_4,_0)
   + y_(7,_5,_0) + y_(7,_6,_0) + y_(7,_8,_0) + y_(7,_9,_0) + y_(7,_10,_0)
   + y_(8,_11,_0) + y_(8,_1,_0) + y_(8,_2,_0) + y_(8,_5,_0) + y_(8,_7,_0)
   + y_(8,_10,_0) <= 0
 drone_launch1_1: y_(0,_1,_1) + y_(0,_2,_1) + y_(0,_3,_1) + y_(0,_4,_1)
   + y_(0,_5,_1) + y_(0,_6,_1) + y_(0,_7,_1) + y_(0,_8,_1) + y_(0,_9,_1)
   + y_(0,_10,_1) + y_(1,_11,_1) + y_(1,_2,_1) + y_(1,_3,_1) + y_(1,_4,_1)
   + y_(1,_7,_1) + y_(1,_8,_1) + y_(1,_9,_1) + y_(1,_10,_1) + y_(1,_5,_1)
   + y_(1,_6,_1) + y_(2,_11,_1) + y_(2,_1,_1) + y_(2,_3,_1) + y_(2,_5,_1)
   + y_(2,_6,_1) + y_(2,_8,_1) + y_(2,_9,_1) + y_(2,_10,_1) + y_(3,_11,_1)
   + y_(3,_1,_1) + y_(3,_2,_1) + y_(3,_4,_1) + y_(3,_5,_1) + y_(3,_7,_1)
   + y_(3,_9,_1) + y_(3,_10,_1) + y_(4,_11,_1) + y_(4,_1,_1) + y_(4,_3,_1)
   + y_(4,_6,_1) + y_(4,_7,_1) + y_(4,_10,_1) + y_(4,_9,_1) + y_(5,_11,_1)
   + y_(5,_2,_1) + y_(5,_3,_1) + y_(5,_1,_1) + y_(5,_7,_1) + y_(5,_8,_1)
   + y_(5,_9,_1) + y_(5,_10,_1) + y_(5,_6,_1) + y_(6,_11,_1) + y_(6,_2,_1)
   + y_(6,_4,_1) + y_(6,_1,_1) + y_(6,_5,_1) + y_(6,_7,_1) + y_(6,_9,_1)
   + y_(6,_10,_1) + y_(7,_11,_1) + y_(7,_1,_1) + y_(7,_3,_1) + y_(7,_4,_1)
   + y_(7,_5,_1) + y_(7,_6,_1) + y_(7,_8,_1) + y_(7,_9,_1) + y_(7,_10,_1)
   + y_(8,_11,_1) + y_(8,_1,_1) + y_(8,_2,_1) + y_(8,_5,_1) + y_(8,_7,_1)
   + y_(8,_10,_1) <= 0
 drone_launch1_2: y_(0,_1,_2) + y_(0,_2,_2) + y_(0,_3,_2) + y_(0,_4,_2)
   + y_(0,_5,_2) + y_(0,_6,_2) + y_(0,_7,_2) + y_(0,_8,_2) + y_(0,_9,_2)
   + y_(0,_10,_2) + y_(1,_11,_2) + y_(1,_2,_2) + y_(1,_3,_2) + y_(1,_4,_2)
   + y_(1,_7,_2) + y_(1,_8,_2) + y_(1,_9,_2) + y_(1,_10,_2) + y_(1,_5,_2)
   + y_(1,_6,_2) + y_(2,_11,_2) + y_(2,_1,_2) + y_(2,_3,_2) + y_(2,_5,_2)
   + y_(2,_6,_2) + y_(2,_8,_2) + y_(2,_9,_2) + y_(2,_10,_2) + y_(3,_11,_2)
   + y_(3,_1,_2) + y_(3,_2,_2) + y_(3,_4,_2) + y_(3,_5,_2) + y_(3,_7,_2)
   + y_(3,_9,_2) + y_(3,_10,_2) + y_(4,_11,_2) + y_(4,_1,_2) + y_(4,_3,_2)
   + y_(4,_6,_2) + y_(4,_7,_2) + y_(4,_10,_2) + y_(4,_9,_2) + y_(5,_11,_2)
   + y_(5,_2,_2) + y_(5,_3,_2) + y_(5,_1,_2) + y_(5,_7,_2) + y_(5,_8,_2)
   + y_(5,_9,_2) + y_(5,_10,_2) + y_(5,_6,_2) + y_(6,_11,_2) + y_(6,_2,_2)
   + y_(6,_4,_2) + y_(6,_1,_2) + y_(6,_5,_2) + y_(6,_7,_2) + y_(6,_9,_2)
   + y_(6,_10,_2) + y_(7,_11,_2) + y_(7,_1,_2) + y_(7,_3,_2) + y_(7,_4,_2)
   + y_(7,_5,_2) + y_(7,_6,_2) + y_(7,_8,_2) + y_(7,_9,_2) + y_(7,_10,_2)
   + y_(8,_11,_2) + y_(8,_1,_2) + y_(8,_2,_2) + y_(8,_5,_2) + y_(8,_7,_2)
   + y_(8,_10,_2) <= 0
 drone_launch1_3: y_(0,_1,_3) + y_(0,_2,_3) + y_(0,_3,_3) + y_(0,_4,_3)
   + y_(0,_5,_3) + y_(0,_6,_3) + y_(0,_7,_3) + y_(0,_8,_3) + y_(0,_9,_3)
   + y_(0,_10,_3) + y_(1,_11,_3) + y_(1,_2,_3) + y_(1,_3,_3) + y_(1,_4,_3)
   + y_(1,_7,_3) + y_(1,_8,_3) + y_(1,_9,_3) + y_(1,_10,_3) + y_(1,_5,_3)
   + y_(1,_6,_3) + y_(2,_11,_3) + y_(2,_1,_3) + y_(2,_3,_3) + y_(2,_5,_3)
   + y_(2,_6,_3) + y_(2,_8,_3) + y_(2,_9,_3) + y_(2,_10,_3) + y_(3,_11,_3)
   + y_(3,_1,_3) + y_(3,_2,_3) + y_(3,_4,_3) + y_(3,_5,_3) + y_(3,_7,_3)
   + y_(3,_9,_3) + y_(3,_10,_3) + y_(4,_11,_3) + y_(4,_1,_3) + y_(4,_3,_3)
   + y_(4,_6,_3) + y_(4,_7,_3) + y_(4,_10,_3) + y_(4,_9,_3) + y_(5,_11,_3)
   + y_(5,_2,_3) + y_(5,_3,_3) + y_(5,_1,_3) + y_(5,_7,_3) + y_(5,_8,_3)
   + y_(5,_9,_3) + y_(5,_10,_3) + y_(5,_6,_3) + y_(6,_11,_3) + y_(6,_2,_3)
   + y_(6,_4,_3) + y_(6,_1,_3) + y_(6,_5,_3) + y_(6,_7,_3) + y_(6,_9,_3)
   + y_(6,_10,_3) + y_(7,_11,_3) + y_(7,_1,_3) + y_(7,_3,_3) + y_(7,_4,_3)
   + y_(7,_5,_3) + y_(7,_6,_3) + y_(7,_8,_3) + y_(7,_9,_3) + y_(7,_10,_3)
   + y_(8,_11,_3) + y_(8,_1,_3) + y_(8,_2,_3) + y_(8,_5,_3) + y_(8,_7,_3)
   + y_(8,_10,_3) <= 0
 drone_launch2_4: - 2 x_(0,_9,_0) - 2 x_(1,_9,_0) - 2 x_(2,_9,_0)
   - 2 x_(3,_9,_0) - 2 x_(4,_9,_0) - 2 x_(5,_9,_0) - 2 x_(6,_9,_0)
   - 2 x_(7,_9,_0) + y_(9,_11,_0) + y_(9,_11,_1) + y_(9,_1,_0)
   + y_(9,_1,_1) + y_(9,_2,_0) + y_(9,_2,_1) + y_(9,_3,_0) + y_(9,_3,_1)
   + y_(9,_4,_0) + y_(9,_4,_1) + y_(9,_5,_0) + y_(9,_5,_1) + y_(9,_6,_0)
   + y_(9,_6,_1) + y_(9,_7,_0) + y_(9,_7,_1) + y_(9,_8,_0) + y_(9,_8,_1)
   + y_(9,_10,_0) + y_(9,_10,_1) - 2 x_(10,_9,_0) <= 0
 drone_launch2_5: - 2 x_(0,_9,_1) - 2 x_(1,_9,_1) - 2 x_(2,_9,_1)
   - 2 x_(3,_9,_1) - 2 x_(4,_9,_1) - 2 x_(5,_9,_1) - 2 x_(6,_9,_1)
   - 2 x_(7,_9,_1) + y_(9,_11,_2) + y_(9,_11,_3) + y_(9,_1,_2)
   + y_(9,_1,_3) + y_(9,_2,_2) + y_(9,_2,_3) + y_(9,_3,_2) + y_(9,_3,_3)
   + y_(9,_4,_2) + y_(9,_4,_3) + y_(9,_5,_2) + y_(9,_5,_3) + y_(9,_6,_2)
   + y_(9,_6,_3) + y_(9,_7,_2) + y_(9,_7,_3) + y_(9,_8,_2) + y_(9,_8,_3)
   + y_(9,_10,_2) + y_(9,_10,_3) - 2 x_(10,_9,_1) <= 0
 drone_launch2_6: - 2 x_(0,_10,_0) - 2 x_(1,_10,_0) - 2 x_(2,_10,_0)
   - 2 x_(3,_10,_0) - 2 x_(4,_10,_0) - 2 x_(5,_10,_0) - 2 x_(6,_10,_0)
   - 2 x_(7,_10,_0) - 2 x_(8,_10,_0) - 2 x_(9,_10,_0) + y_(10,_11,_0)
   + y_(10,_11,_1) + y_(10,_1,_0) + y_(10,_1,_1) + y_(10,_2,_0)
   + y_(10,_2,_1) + y_(10,_3,_0) + y_(10,_3,_1) + y_(10,_4,_0)
   + y_(10,_4,_1) + y_(10,_5,_0) + y_(10,_5,_1) + y_(10,_6,_0)
   + y_(10,_6,_1) + y_(10,_7,_0) + y_(10,_7,_1) + y_(10,_8,_0)
   + y_(10,_8,_1) + y_(10,_9,_0) + y_(10,_9,_1) <= 0
 drone_launch2_7: - 2 x_(0,_10,_1) - 2 x_(1,_10,_1) - 2 x_(2,_10,_1)
   - 2 x_(3,_10,_1) - 2 x_(4,_10,_1) - 2 x_(5,_10,_1) - 2 x_(6,_10,_1)
   - 2 x_(7,_10,_1) - 2 x_(8,_10,_1) - 2 x_(9,_10,_1) + y_(10,_11,_2)
   + y_(10,_11,_3) + y_(10,_1,_2) + y_(10,_1,_3) + y_(10,_2,_2)
   + y_(10,_2,_3) + y_(10,_3,_2) + y_(10,_3,_3) + y_(10,_4,_2)
   + y_(10,_4,_3) + y_(10,_5,_2) + y_(10,_5,_3) + y_(10,_6,_2)
   + y_(10,_6,_3) + y_(10,_7,_2) + y_(10,_7,_3) + y_(10,_8,_2)
   + y_(10,_8,_3) + y_(10,_9,_2) + y_(10,_9,_3) <= 0
 drone_battery_0: 4 y_(9,_11,_0) <= 150
 drone_battery_1: 4 y_(9,_11,_1) <= 150
 drone_battery_2: 4 y_(9,_11,_2) <= 150
 drone_battery_3: 4 y_(9,_11,_3) <= 150
 drone_battery_4: 4 y_(9,_1,_0) <= 150
 drone_battery_5: 4 y_(9,_1,_1) <= 150
 drone_battery_6: 4 y_(9,_1,_2) <= 150
 drone_battery_7: 4 y_(9,_1,_3) <= 150
 drone_battery_8: 2 y_(9,_2,_0) <= 150
 drone_battery_9: 2 y_(9,_2,_1) <= 150
 drone_battery_10: 2 y_(9,_2,_2) <= 150
 drone_battery_11: 2 y_(9,_2,_3) <= 150
 drone_battery_12: 4 y_(9,_3,_0) <= 150
 drone_battery_13: 4 y_(9,_3,_1) <= 150
 drone_battery_14: 4 y_(9,_3,_2) <= 150
 drone_battery_15: 4 y_(9,_3,_3) <= 150
 drone_battery_16: 4 y_(9,_4,_0) <= 150
 drone_battery_17: 4 y_(9,_4,_1) <= 150
 drone_battery_18: 4 y_(9,_4,_2) <= 150
 drone_battery_19: 4 y_(9,_4,_3) <= 150
 drone_battery_20: 2 y_(9,_5,_0) <= 150
 drone_battery_21: 2 y_(9,_5,_1) <= 150
 drone_battery_22: 2 y_(9,_5,_2) <= 150
 drone_battery_23: 2 y_(9,_5,_3) <= 150
 drone_battery_24: 4 y_(9,_6,_0) <= 150
 drone_battery_25: 4 y_(9,_6,_1) <= 150
 drone_battery_26: 4 y_(9,_6,_2) <= 150
 drone_battery_27: 4 y_(9,_6,_3) <= 150
 drone_battery_28: 2 y_(9,_7,_0) <= 150
 drone_battery_29: 2 y_(9,_7,_1) <= 150
 drone_battery_30: 2 y_(9,_7,_2) <= 150
 drone_battery_31: 2 y_(9,_7,_3) <= 150
 drone_battery_32: 4 y_(9,_8,_0) <= 150
 drone_battery_33: 4 y_(9,_8,_1) <= 150
 drone_battery_34: 4 y_(9,_8,_2) <= 150
 drone_battery_35: 4 y_(9,_8,_3) <= 150
 drone_battery_36: 4 y_(9,_10,_0) <= 150
 drone_battery_37: 4 y_(9,_10,_1) <= 150
 drone_battery_38: 4 y_(9,_10,_2) <= 150
 drone_battery_39: 4 y_(9,_10,_3) <= 150
 drone_battery_40: 2 y_(10,_11,_0) <= 150
 drone_battery_41: 2 y_(10,_11,_1) <= 150
 drone_battery_42: 2 y_(10,_11,_2) <= 150
 drone_battery_43: 2 y_(10,_11,_3) <= 150
 drone_battery_44: 4 y_(10,_1,_0) <= 150
 drone_battery_45: 4 y_(10,_1,_1) <= 150
 drone_battery_46: 4 y_(10,_1,_2) <= 150
 drone_battery_47: 4 y_(10,_1,_3) <= 150
 drone_battery_48: 2 y_(10,_2,_0) <= 150
 drone_battery_49: 2 y_(10,_2,_1) <= 150
 drone_battery_50: 2 y_(10,_2,_2) <= 150
 drone_battery_51: 2 y_(10,_2,_3) <= 150
 drone_battery_52: 2 y_(10,_3,_0) <= 150
 drone_battery_53: 2 y_(10,_3,_1) <= 150
 drone_battery_54: 2 y_(10,_3,_2) <= 150
 drone_battery_55: 2 y_(10,_3,_3) <= 150
 drone_battery_56: 4 y_(10,_4,_0) <= 150
 drone_battery_57: 4 y_(10,_4,_1) <= 150
 drone_battery_58: 4 y_(10,_4,_2) <= 150
 drone_battery_59: 4 y_(10,_4,_3) <= 150
 drone_battery_60: 2 y_(10,_5,_0) <= 150
 drone_battery_61: 2 y_(10,_5,_1) <= 150
 drone_battery_62: 2 y_(10,_5,_2) <= 150
 drone_battery_63: 2 y_(10,_5,_3) <= 150
 drone_battery_64: 4 y_(10,_6,_0) <= 150
 drone_battery_65: 4 y_(10,_6,_1) <= 150
 drone_battery_66: 4 y_(10,_6,_2) <= 150
 drone_battery_67: 4 y_(10,_6,_3) <= 150
 drone_battery_68: 4 y_(10,_7,_0) <= 150
 drone_battery_69: 4 y_(10,_7,_1) <= 150
 drone_battery_70: 4 y_(10,_7,_2) <= 150
 drone_battery_71: 4 y_(10,_7,_3) <= 150
 drone_battery_72: 2 y_(10,_8,_0) <= 150
 drone_battery_73: 2 y_(10,_8,_1) <= 150
 drone_battery_74: 2 y_(10,_8,_2) <= 150
 drone_battery_75: 2 y_(10,_8,_3) <= 150
 drone_battery_76: 4 y_(10,_9,_0) <= 150
 drone_battery_77: 4 y_(10,_9,_1) <= 150
 drone_battery_78: 4 y_(10,_9,_2) <= 150
 drone_battery_79: 4 y_(10,_9,_3) <= 150
 payload1_0: wk_(0,_0) <= 100
 payload1_1: wk_(0,_1) <= 100
 payload1_2: wk_(1,_0) <= 100
 payload1_3: wk_(1,_1) <= 100
 payload1_4: wk_(2,_0) <= 100
 payload1_5: wk_(2,_1) <= 100
 payload1_6: wk_(3,_0) <= 100
 payload1_7: wk_(3,_1) <= 100
 payload1_8: wk_(4,_0) <= 100
 payload1_9: wk_(4,_1) <= 100
 payload1_10: wk_(5,_0) <= 100
 payload1_11: wk_(5,_1) <= 100
 payload1_12: wk_(6,_0) <= 100
 payload1_13: wk_(6,_1) <= 100
 payload1_14: wk_(7,_0) <= 100
 payload1_15: wk_(7,_1) <= 100
 payload1_16: wk_(8,_0) <= 100
 payload1_17: wk_(8,_1) <= 100
 payload1_18: wk_(9,_0) <= 100
 payload1_19: wk_(9,_1) <= 100
 payload1_20: wk_(10,_0) <= 100
 payload1_21: wk_(10,_1) <= 100
 payload1_22: wk_(11,_0) <= 100
 payload1_23: wk_(11,_1) <= 100
 payload2_24: - 10000 x_(0,_1,_0) - wk_(0,_0) + wk_(1,_0)
   >= -9994.337890764986
 payload2_25: - 10000 x_(0,_1,_1) - wk_(0,_1) + wk_(1,_1)
   >= -9994.337890764986
 payload2_26: - 10000 x_(9,_1,_0) + wk_(1,_0) - wk_(9,_0)
   >= -9994.337890764986
 payload2_27: - 10000 x_(9,_1,_1) + wk_(1,_1) - wk_(9,_1)
   >= -9994.337890764986
 payload2_28: - 10000 x_(10,_1,_0) + wk_(1,_0) - wk_(10,_0)
   >= -9994.337890764986
 payload2_29: - 10000 x_(10,_1,_1) + wk_(1,_1) - wk_(10,_1)
   >= -9994.337890764986
 payload2_30: - 10000 x_(2,_1,_0) + wk_(1,_0) - wk_(2,_0)
   >= -9994.337890764986
 payload2_31: - 10000 x_(2,_1,_1) + wk_(1,_1) - wk_(2,_1)
   >= -9994.337890764986
 payload2_32: - 10000 x_(3,_1,_0) + wk_(1,_0) - wk_(3,_0)
   >= -9994.337890764986
 payload2_33: - 10000 x_(3,_1,_1) + wk_(1,_1) - wk_(3,_1)
   >= -9994.337890764986
 payload2_34: - 10000 x_(4,_1,_0) + wk_(1,_0) - wk_(4,_0)
   >= -9994.337890764986
 payload2_35: - 10000 x_(4,_1,_1) + wk_(1,_1) - wk_(4,_1)
   >= -9994.337890764986
 payload2_36: - 10000 x_(7,_1,_0) + wk_(1,_0) - wk_(7,_0)
   >= -9994.337890764986
 payload2_37: - 10000 x_(7,_1,_1) + wk_(1,_1) - wk_(7,_1)
   >= -9994.337890764986
 payload2_38: - 10000 x_(8,_1,_0) + wk_(1,_0) - wk_(8,_0)
   >= -9994.337890764986
 payload2_39: - 10000 x_(8,_1,_1) + wk_(1,_1) - wk_(8,_1)
   >= -9994.337890764986
 payload2_40: - 10000 x_(5,_1,_0) + wk_(1,_0) - wk_(5,_0)
   >= -9994.337890764986
 payload2_41: - 10000 x_(5,_1,_1) + wk_(1,_1) - wk_(5,_1)
   >= -9994.337890764986
 payload2_42: - 10000 x_(6,_1,_0) + wk_(1,_0) - wk_(6,_0)
   >= -9994.337890764986
 payload2_43: - 10000 x_(6,_1,_1) + wk_(1,_1) - wk_(6,_1)
   >= -9994.337890764986
 payload2_44: - 10000 x_(0,_2,_0) - wk_(0,_0) + wk_(2,_0)
   >= -9993.128451527306
 payload2_45: - 10000 x_(0,_2,_1) - wk_(0,_1) + wk_(2,_1)
   >= -9993.128451527306
 payload2_46: - 10000 x_(9,_2,_0) + wk_(2,_0) - wk_(9,_0)
   >= -9993.128451527306
 payload2_47: - 10000 x_(9,_2,_1) + wk_(2,_1) - wk_(9,_1)
   >= -9993.128451527306
 payload2_48: - 10000 x_(10,_2,_0) + wk_(2,_0) - wk_(10,_0)
   >= -9993.128451527306
 payload2_49: - 10000 x_(10,_2,_1) + wk_(2,_1) - wk_(10,_1)
   >= -9993.128451527306
 payload2_50: - 10000 x_(1,_2,_0) - wk_(1,_0) + wk_(2,_0)
   >= -9993.128451527306
 payload2_51: - 10000 x_(1,_2,_1) - wk_(1,_1) + wk_(2,_1)
   >= -9993.128451527306
 payload2_52: - 10000 x_(3,_2,_0) + wk_(2,_0) - wk_(3,_0)
   >= -9993.128451527306
 payload2_53: - 10000 x_(3,_2,_1) + wk_(2,_1) - wk_(3,_1)
   >= -9993.128451527306
 payload2_54: - 10000 x_(5,_2,_0) + wk_(2,_0) - wk_(5,_0)
   >= -9993.128451527306
 payload2_55: - 10000 x_(5,_2,_1) + wk_(2,_1) - wk_(5,_1)
   >= -9993.128451527306
 payload2_56: - 10000 x_(6,_2,_0) + wk_(2,_0) - wk_(6,_0)
   >= -9993.128451527306
 payload2_57: - 10000 x_(6,_2,_1) + wk_(2,_1) - wk_(6,_1)
   >= -9993.128451527306
 payload2_58: - 10000 x_(8,_2,_0) + wk_(2,_0) - wk_(8,_0)
   >= -9993.128451527306
 payload2_59: - 10000 x_(8,_2,_1) + wk_(2,_1) - wk_(8,_1)
   >= -9993.128451527306
 payload2_60: - 10000 x_(0,_3,_0) - wk_(0,_0) + wk_(3,_0)
   >= -9996.436194373715
 payload2_61: - 10000 x_(0,_3,_1) - wk_(0,_1) + wk_(3,_1)
   >= -9996.436194373715
 payload2_62: - 10000 x_(9,_3,_0) + wk_(3,_0) - wk_(9,_0)
   >= -9996.436194373715
 payload2_63: - 10000 x_(9,_3,_1) + wk_(3,_1) - wk_(9,_1)
   >= -9996.436194373715
 payload2_64: - 10000 x_(10,_3,_0) + wk_(3,_0) - wk_(10,_0)
   >= -9996.436194373715
 payload2_65: - 10000 x_(10,_3,_1) + wk_(3,_1) - wk_(10,_1)
   >= -9996.436194373715
 payload2_66: - 10000 x_(1,_3,_0) - wk_(1,_0) + wk_(3,_0)
   >= -9996.436194373715
 payload2_67: - 10000 x_(1,_3,_1) - wk_(1,_1) + wk_(3,_1)
   >= -9996.436194373715
 payload2_68: - 10000 x_(2,_3,_0) - wk_(2,_0) + wk_(3,_0)
   >= -9996.436194373715
 payload2_69: - 10000 x_(2,_3,_1) - wk_(2,_1) + wk_(3,_1)
   >= -9996.436194373715
 payload2_70: - 10000 x_(4,_3,_0) + wk_(3,_0) - wk_(4,_0)
   >= -9996.436194373715
 payload2_71: - 10000 x_(4,_3,_1) + wk_(3,_1) - wk_(4,_1)
   >= -9996.436194373715
 payload2_72: - 10000 x_(5,_3,_0) + wk_(3,_0) - wk_(5,_0)
   >= -9996.436194373715
 payload2_73: - 10000 x_(5,_3,_1) + wk_(3,_1) - wk_(5,_1)
   >= -9996.436194373715
 payload2_74: - 10000 x_(7,_3,_0) + wk_(3,_0) - wk_(7,_0)
   >= -9996.436194373715
 payload2_75: - 10000 x_(7,_3,_1) + wk_(3,_1) - wk_(7,_1)
   >= -9996.436194373715
 payload2_76: - 10000 x_(0,_4,_0) - wk_(0,_0) + wk_(4,_0)
   >= -9994.159417605042
 payload2_77: - 10000 x_(0,_4,_1) - wk_(0,_1) + wk_(4,_1)
   >= -9994.159417605042
 payload2_78: - 10000 x_(9,_4,_0) + wk_(4,_0) - wk_(9,_0)
   >= -9994.159417605042
 payload2_79: - 10000 x_(9,_4,_1) + wk_(4,_1) - wk_(9,_1)
   >= -9994.159417605042
 payload2_80: - 10000 x_(10,_4,_0) + wk_(4,_0) - wk_(10,_0)
   >= -9994.159417605042
 payload2_81: - 10000 x_(10,_4,_1) + wk_(4,_1) - wk_(10,_1)
   >= -9994.159417605042
 payload2_82: - 10000 x_(1,_4,_0) - wk_(1,_0) + wk_(4,_0)
   >= -9994.159417605042
 payload2_83: - 10000 x_(1,_4,_1) - wk_(1,_1) + wk_(4,_1)
   >= -9994.159417605042
 payload2_84: - 10000 x_(3,_4,_0) - wk_(3,_0) + wk_(4,_0)
   >= -9994.159417605042
 payload2_85: - 10000 x_(3,_4,_1) - wk_(3,_1) + wk_(4,_1)
   >= -9994.159417605042
 payload2_86: - 10000 x_(6,_4,_0) + wk_(4,_0) - wk_(6,_0)
   >= -9994.159417605042
 payload2_87: - 10000 x_(6,_4,_1) + wk_(4,_1) - wk_(6,_1)
   >= -9994.159417605042
 payload2_88: - 10000 x_(7,_4,_0) + wk_(4,_0) - wk_(7,_0)
   >= -9994.159417605042
 payload2_89: - 10000 x_(7,_4,_1) + wk_(4,_1) - wk_(7,_1)
   >= -9994.159417605042
 payload2_90: - 10000 x_(0,_5,_0) - wk_(0,_0) + wk_(5,_0)
   >= -9990.523103369713
 payload2_91: - 10000 x_(0,_5,_1) - wk_(0,_1) + wk_(5,_1)
   >= -9990.523103369713
 payload2_92: - 10000 x_(9,_5,_0) + wk_(5,_0) - wk_(9,_0)
   >= -9990.523103369713
 payload2_93: - 10000 x_(9,_5,_1) + wk_(5,_1) - wk_(9,_1)
   >= -9990.523103369713
 payload2_94: - 10000 x_(10,_5,_0) + wk_(5,_0) - wk_(10,_0)
   >= -9990.523103369713
 payload2_95: - 10000 x_(10,_5,_1) + wk_(5,_1) - wk_(10,_1)
   >= -9990.523103369713
 payload2_96: - 10000 x_(2,_5,_0) - wk_(2,_0) + wk_(5,_0)
   >= -9990.523103369713
 payload2_97: - 10000 x_(2,_5,_1) - wk_(2,_1) + wk_(5,_1)
   >= -9990.523103369713
 payload2_98: - 10000 x_(3,_5,_0) - wk_(3,_0) + wk_(5,_0)
   >= -9990.523103369713
 payload2_99: - 10000 x_(3,_5,_1) - wk_(3,_1) + wk_(5,_1)
   >= -9990.523103369713
 payload2_100: - 10000 x_(1,_5,_0) - wk_(1,_0) + wk_(5,_0)
   >= -9990.523103369713
 payload2_101: - 10000 x_(1,_5,_1) - wk_(1,_1) + wk_(5,_1)
   >= -9990.523103369713
 payload2_102: - 10000 x_(7,_5,_0) + wk_(5,_0) - wk_(7,_0)
   >= -9990.523103369713
 payload2_103: - 10000 x_(7,_5,_1) + wk_(5,_1) - wk_(7,_1)
   >= -9990.523103369713
 payload2_104: - 10000 x_(8,_5,_0) + wk_(5,_0) - wk_(8,_0)
   >= -9990.523103369713
 payload2_105: - 10000 x_(8,_5,_1) + wk_(5,_1) - wk_(8,_1)
   >= -9990.523103369713
 payload2_106: - 10000 x_(6,_5,_0) + wk_(5,_0) - wk_(6,_0)
   >= -9990.523103369713
 payload2_107: - 10000 x_(6,_5,_1) + wk_(5,_1) - wk_(6,_1)
   >= -9990.523103369713
 payload2_108: - 10000 x_(0,_6,_0) - wk_(0,_0) + wk_(6,_0)
   >= -9992.122266293778
 payload2_109: - 10000 x_(0,_6,_1) - wk_(0,_1) + wk_(6,_1)
   >= -9992.122266293778
 payload2_110: - 10000 x_(9,_6,_0) + wk_(6,_0) - wk_(9,_0)
   >= -9992.122266293778
 payload2_111: - 10000 x_(9,_6,_1) + wk_(6,_1) - wk_(9,_1)
   >= -9992.122266293778
 payload2_112: - 10000 x_(10,_6,_0) + wk_(6,_0) - wk_(10,_0)
   >= -9992.122266293778
 payload2_113: - 10000 x_(10,_6,_1) + wk_(6,_1) - wk_(10,_1)
   >= -9992.122266293778
 payload2_114: - 10000 x_(2,_6,_0) - wk_(2,_0) + wk_(6,_0)
   >= -9992.122266293778
 payload2_115: - 10000 x_(2,_6,_1) - wk_(2,_1) + wk_(6,_1)
   >= -9992.122266293778
 payload2_116: - 10000 x_(4,_6,_0) - wk_(4,_0) + wk_(6,_0)
   >= -9992.122266293778
 payload2_117: - 10000 x_(4,_6,_1) - wk_(4,_1) + wk_(6,_1)
   >= -9992.122266293778
 payload2_118: - 10000 x_(1,_6,_0) - wk_(1,_0) + wk_(6,_0)
   >= -9992.122266293778
 payload2_119: - 10000 x_(1,_6,_1) - wk_(1,_1) + wk_(6,_1)
   >= -9992.122266293778
 payload2_120: - 10000 x_(5,_6,_0) - wk_(5,_0) + wk_(6,_0)
   >= -9992.122266293778
 payload2_121: - 10000 x_(5,_6,_1) - wk_(5,_1) + wk_(6,_1)
   >= -9992.122266293778
 payload2_122: - 10000 x_(7,_6,_0) + wk_(6,_0) - wk_(7,_0)
   >= -9992.122266293778
 payload2_123: - 10000 x_(7,_6,_1) + wk_(6,_1) - wk_(7,_1)
   >= -9992.122266293778
 payload2_124: - 10000 x_(0,_7,_0) - wk_(0,_0) + wk_(7,_0)
   >= -9994.453026525809
 payload2_125: - 10000 x_(0,_7,_1) - wk_(0,_1) + wk_(7,_1)
   >= -9994.453026525809
 payload2_126: - 10000 x_(9,_7,_0) + wk_(7,_0) - wk_(9,_0)
   >= -9994.453026525809
 payload2_127: - 10000 x_(9,_7,_1) + wk_(7,_1) - wk_(9,_1)
   >= -9994.453026525809
 payload2_128: - 10000 x_(10,_7,_0) + wk_(7,_0) - wk_(10,_0)
   >= -9994.453026525809
 payload2_129: - 10000 x_(10,_7,_1) + wk_(7,_1) - wk_(10,_1)
   >= -9994.453026525809
 payload2_130: - 10000 x_(1,_7,_0) - wk_(1,_0) + wk_(7,_0)
   >= -9994.453026525809
 payload2_131: - 10000 x_(1,_7,_1) - wk_(1,_1) + wk_(7,_1)
   >= -9994.453026525809
 payload2_132: - 10000 x_(3,_7,_0) - wk_(3,_0) + wk_(7,_0)
   >= -9994.453026525809
 payload2_133: - 10000 x_(3,_7,_1) - wk_(3,_1) + wk_(7,_1)
   >= -9994.453026525809
 payload2_134: - 10000 x_(4,_7,_0) - wk_(4,_0) + wk_(7,_0)
   >= -9994.453026525809
 payload2_135: - 10000 x_(4,_7,_1) - wk_(4,_1) + wk_(7,_1)
   >= -9994.453026525809
 payload2_136: - 10000 x_(5,_7,_0) - wk_(5,_0) + wk_(7,_0)
   >= -9994.453026525809
 payload2_137: - 10000 x_(5,_7,_1) - wk_(5,_1) + wk_(7,_1)
   >= -9994.453026525809
 payload2_138: - 10000 x_(6,_7,_0) - wk_(6,_0) + wk_(7,_0)
   >= -9994.453026525809
 payload2_139: - 10000 x_(6,_7,_1) - wk_(6,_1) + wk_(7,_1)
   >= -9994.453026525809
 payload2_140: - 10000 x_(8,_7,_0) + wk_(7,_0) - wk_(8,_0)
   >= -9994.453026525809
 payload2_141: - 10000 x_(8,_7,_1) + wk_(7,_1) - wk_(8,_1)
   >= -9994.453026525809
 payload2_142: - 10000 x_(0,_8,_0) - wk_(0,_0) + wk_(8,_0)
   >= -9994.828014474606
 payload2_143: - 10000 x_(0,_8,_1) - wk_(0,_1) + wk_(8,_1)
   >= -9994.828014474606
 payload2_144: - 10000 x_(9,_8,_0) + wk_(8,_0) - wk_(9,_0)
   >= -9994.828014474606
 payload2_145: - 10000 x_(9,_8,_1) + wk_(8,_1) - wk_(9,_1)
   >= -9994.828014474606
 payload2_146: - 10000 x_(10,_8,_0) + wk_(8,_0) - wk_(10,_0)
   >= -9994.828014474606
 payload2_147: - 10000 x_(10,_8,_1) + wk_(8,_1) - wk_(10,_1)
   >= -9994.828014474606
 payload2_148: - 10000 x_(1,_8,_0) - wk_(1,_0) + wk_(8,_0)
   >= -9994.828014474606
 payload2_149: - 10000 x_(1,_8,_1) - wk_(1,_1) + wk_(8,_1)
   >= -9994.828014474606
 payload2_150: - 10000 x_(2,_8,_0) - wk_(2,_0) + wk_(8,_0)
   >= -9994.828014474606
 payload2_151: - 10000 x_(2,_8,_1) - wk_(2,_1) + wk_(8,_1)
   >= -9994.828014474606
 payload2_152: - 10000 x_(5,_8,_0) - wk_(5,_0) + wk_(8,_0)
   >= -9994.828014474606
 payload2_153: - 10000 x_(5,_8,_1) - wk_(5,_1) + wk_(8,_1)
   >= -9994.828014474606
 payload2_154: - 10000 x_(7,_8,_0) - wk_(7,_0) + wk_(8,_0)
   >= -9994.828014474606
 payload2_155: - 10000 x_(7,_8,_1) - wk_(7,_1) + wk_(8,_1)
   >= -9994.828014474606
 payload2_156: - 10000 x_(0,_9,_0) - wk_(0,_0) + wk_(9,_0) >= -9999.99
 payload2_157: - 10000 x_(0,_9,_1) - wk_(0,_1) + wk_(9,_1) >= -9999.99
 payload2_158: - 10000 x_(1,_9,_0) - wk_(1,_0) + wk_(9,_0) >= -9999.99
 payload2_159: - 10000 x_(1,_9,_1) - wk_(1,_1) + wk_(9,_1) >= -9999.99
 payload2_160: - 10000 x_(2,_9,_0) - wk_(2,_0) + wk_(9,_0) >= -9999.99
 payload2_161: - 10000 x_(2,_9,_1) - wk_(2,_1) + wk_(9,_1) >= -9999.99
 payload2_162: - 10000 x_(3,_9,_0) - wk_(3,_0) + wk_(9,_0) >= -9999.99
 payload2_163: - 10000 x_(3,_9,_1) - wk_(3,_1) + wk_(9,_1) >= -9999.99
 payload2_164: - 10000 x_(5,_9,_0) - wk_(5,_0) + wk_(9,_0) >= -9999.99
 payload2_165: - 10000 x_(5,_9,_1) - wk_(5,_1) + wk_(9,_1) >= -9999.99
 payload2_166: - 10000 x_(6,_9,_0) - wk_(6,_0) + wk_(9,_0) >= -9999.99
 payload2_167: - 10000 x_(6,_9,_1) - wk_(6,_1) + wk_(9,_1) >= -9999.99
 payload2_168: - 10000 x_(4,_9,_0) - wk_(4,_0) + wk_(9,_0) >= -9999.99
 payload2_169: - 10000 x_(4,_9,_1) - wk_(4,_1) + wk_(9,_1) >= -9999.99
 payload2_170: - 10000 x_(7,_9,_0) - wk_(7,_0) + wk_(9,_0) >= -9999.99
 payload2_171: - 10000 x_(7,_9,_1) - wk_(7,_1) + wk_(9,_1) >= -9999.99
 payload2_172: - 10000 x_(10,_9,_0) + wk_(9,_0) - wk_(10,_0) >= -9999.99
 payload2_173: - 10000 x_(10,_9,_1) + wk_(9,_1) - wk_(10,_1) >= -9999.99
 payload2_174: - 10000 x_(0,_10,_0) - wk_(0,_0) + wk_(10,_0) >= -9999.99
 payload2_175: - 10000 x_(0,_10,_1) - wk_(0,_1) + wk_(10,_1) >= -9999.99
 payload2_176: - 10000 x_(1,_10,_0) - wk_(1,_0) + wk_(10,_0) >= -9999.99
 payload2_177: - 10000 x_(1,_10,_1) - wk_(1,_1) + wk_(10,_1) >= -9999.99
 payload2_178: - 10000 x_(3,_10,_0) - wk_(3,_0) + wk_(10,_0) >= -9999.99
 payload2_179: - 10000 x_(3,_10,_1) - wk_(3,_1) + wk_(10,_1) >= -9999.99
 payload2_180: - 10000 x_(4,_10,_0) - wk_(4,_0) + wk_(10,_0) >= -9999.99
 payload2_181: - 10000 x_(4,_10,_1) - wk_(4,_1) + wk_(10,_1) >= -9999.99
 payload2_182: - 10000 x_(5,_10,_0) - wk_(5,_0) + wk_(10,_0) >= -9999.99
 payload2_183: - 10000 x_(5,_10,_1) - wk_(5,_1) + wk_(10,_1) >= -9999.99
 payload2_184: - 10000 x_(6,_10,_0) - wk_(6,_0) + wk_(10,_0) >= -9999.99
 payload2_185: - 10000 x_(6,_10,_1) - wk_(6,_1) + wk_(10,_1) >= -9999.99
 payload2_186: - 10000 x_(8,_10,_0) - wk_(8,_0) + wk_(10,_0) >= -9999.99
 payload2_187: - 10000 x_(8,_10,_1) - wk_(8,_1) + wk_(10,_1) >= -9999.99
 payload2_188: - 10000 x_(9,_10,_0) - wk_(9,_0) + wk_(10,_0) >= -9999.99
 payload2_189: - 10000 x_(9,_10,_1) - wk_(9,_1) + wk_(10,_1) >= -9999.99
 payload2_190: - 10000 x_(2,_10,_0) - wk_(2,_0) + wk_(10,_0) >= -9999.99
 payload2_191: - 10000 x_(2,_10,_1) - wk_(2,_1) + wk_(10,_1) >= -9999.99
 payload2_192: - 10000 x_(7,_10,_0) - wk_(7,_0) + wk_(10,_0) >= -9999.99
 payload2_193: - 10000 x_(7,_10,_1) - wk_(7,_1) + wk_(10,_1) >= -9999.99
 payload3_194: <= 5
 payload3_195: <= 5
 payload3_196: <= 5
 payload3_197: <= 5
 payload3_198: 5.662109235014246 y_(9,_1,_0) <= 5
 payload3_199: 5.662109235014246 y_(9,_1,_1) <= 5
 payload3_200: 5.662109235014246 y_(9,_1,_2) <= 5
 payload3_201: 5.662109235014246 y_(9,_1,_3) <= 5
 payload3_202: 6.871548472694072 y_(9,_2,_0) <= 5
 payload3_203: 6.871548472694072 y_(9,_2,_1) <= 5
 payload3_204: 6.871548472694072 y_(9,_2,_2) <= 5
 payload3_205: 6.871548472694072 y_(9,_2,_3) <= 5
 payload3_206: 3.563805626284566 y_(9,_3,_0) <= 5
 payload3_207: 3.563805626284566 y_(9,_3,_1) <= 5
 payload3_208: 3.563805626284566 y_(9,_3,_2) <= 5
 payload3_209: 3.563805626284566 y_(9,_3,_3) <= 5
 payload3_210: 5.84058239495859 y_(9,_4,_0) <= 5
 payload3_211: 5.84058239495859 y_(9,_4,_1) <= 5
 payload3_212: 5.84058239495859 y_(9,_4,_2) <= 5
 payload3_213: 5.84058239495859 y_(9,_4,_3) <= 5
 payload3_214: 9.476896630286793 y_(9,_5,_0) <= 5
 payload3_215: 9.476896630286793 y_(9,_5,_1) <= 5
 payload3_216: 9.476896630286793 y_(9,_5,_2) <= 5
 payload3_217: 9.476896630286793 y_(9,_5,_3) <= 5
 payload3_218: 7.877733706222536 y_(9,_6,_0) <= 5
 payload3_219: 7.877733706222536 y_(9,_6,_1) <= 5
 payload3_220: 7.877733706222536 y_(9,_6,_2) <= 5
 payload3_221: 7.877733706222536 y_(9,_6,_3) <= 5
 payload3_222: 5.546973474191809 y_(9,_7,_0) <= 5
 payload3_223: 5.546973474191809 y_(9,_7,_1) <= 5
 payload3_224: 5.546973474191809 y_(9,_7,_2) <= 5
 payload3_225: 5.546973474191809 y_(9,_7,_3) <= 5
 payload3_226: 5.171985525393479 y_(9,_8,_0) <= 5
 payload3_227: 5.171985525393479 y_(9,_8,_1) <= 5
 payload3_228: 5.171985525393479 y_(9,_8,_2) <= 5
 payload3_229: 5.171985525393479 y_(9,_8,_3) <= 5
 payload3_230: 0.01 y_(9,_10,_0) <= 5
 payload3_231: 0.01 y_(9,_10,_1) <= 5
 payload3_232: 0.01 y_(9,_10,_2) <= 5
 payload3_233: 0.01 y_(9,_10,_3) <= 5
 payload3_234: <= 5
 payload3_235: <= 5
 payload3_236: <= 5
 payload3_237: <= 5
 payload3_238: 5.662109235014246 y_(10,_1,_0) <= 5
 payload3_239: 5.662109235014246 y_(10,_1,_1) <= 5
 payload3_240: 5.662109235014246 y_(10,_1,_2) <= 5
 payload3_241: 5.662109235014246 y_(10,_1,_3) <= 5
 payload3_242: 6.871548472694072 y_(10,_2,_0) <= 5
 payload3_243: 6.871548472694072 y_(10,_2,_1) <= 5
 payload3_244: 6.871548472694072 y_(10,_2,_2) <= 5
 payload3_245: 6.871548472694072 y_(10,_2,_3) <= 5
 payload3_246: 3.563805626284566 y_(10,_3,_0) <= 5
 payload3_247: 3.563805626284566 y_(10,_3,_1) <= 5
 payload3_248: 3.563805626284566 y_(10,_3,_2) <= 5
 payload3_249: 3.563805626284566 y_(10,_3,_3) <= 5
 payload3_250: 5.84058239495859 y_(10,_4,_0) <= 5
 payload3_251: 5.84058239495859 y_(10,_4,_1) <= 5
 payload3_252: 5.84058239495859 y_(10,_4,_2) <= 5
 payload3_253: 5.84058239495859 y_(10,_4,_3) <= 5
 payload3_254: 9.476896630286793 y_(10,_5,_0) <= 5
 payload3_255: 9.476896630286793 y_(10,_5,_1) <= 5
 payload3_256: 9.476896630286793 y_(10,_5,_2) <= 5
 payload3_257: 9.476896630286793 y_(10,_5,_3) <= 5
 payload3_258: 7.877733706222536 y_(10,_6,_0) <= 5
 payload3_259: 7.877733706222536 y_(10,_6,_1) <= 5
 payload3_260: 7.877733706222536 y_(10,_6,_2) <= 5
 payload3_261: 7.877733706222536 y_(10,_6,_3) <= 5
 payload3_262: 5.546973474191809 y_(10,_7,_0) <= 5
 payload3_263: 5.546973474191809 y_(10,_7,_1) <= 5
 payload3_264: 5.546973474191809 y_(10,_7,_2) <= 5
 payload3_265: 5.546973474191809 y_(10,_7,_3) <= 5
 payload3_266: 5.171985525393479 y_(10,_8,_0) <= 5
 payload3_267: 5.171985525393479 y_(10,_8,_1) <= 5
 payload3_268: 5.171985525393479 y_(10,_8,_2) <= 5
 payload3_269: 5.171985525393479 y_(10,_8,_3) <= 5
 payload3_270: 0.01 y_(10,_9,_0) <= 5
 payload3_271: 0.01 y_(10,_9,_1) <= 5
 payload3_272: 0.01 y_(10,_9,_2) <= 5
 payload3_273: 0.01 y_(10,_9,_3) <= 5
 wait1_0: - 4 y_(9,_11,_0) - 4 y_(9,_11,_1) + t_(9,_0) >= 0
 wait1_1: - 4 y_(9,_1,_0) - 4 y_(9,_1,_1) + t_(9,_0) >= 0
 wait1_2: - 2 y_(9,_2,_0) - 2 y_(9,_2,_1) + t_(9,_0) >= 0
 wait1_3: - 4 y_(9,_3,_0) - 4 y_(9,_3,_1) + t_(9,_0) >= 0
 wait1_4: - 4 y_(9,_4,_0) - 4 y_(9,_4,_1) + t_(9,_0) >= 0
 wait1_5: - 2 y_(9,_5,_0) - 2 y_(9,_5,_1) + t_(9,_0) >= 0
 wait1_6: - 4 y_(9,_6,_0) - 4 y_(9,_6,_1) + t_(9,_0) >= 0
 wait1_7: - 2 y_(9,_7,_0) - 2 y_(9,_7,_1) + t_(9,_0) >= 0
 wait1_8: - 4 y_(9,_8,_0) - 4 y_(9,_8,_1) + t_(9,_0) >= 0
 wait1_9: - 4 y_(9,_10,_0) - 4 y_(9,_10,_1) + t_(9,_0) >= 0
 wait1_10: - 4 y_(9,_11,_2) - 4 y_(9,_11,_3) + t_(9,_1) >= 0
 wait1_11: - 4 y_(9,_1,_2) - 4 y_(9,_1,_3) + t_(9,_1) >= 0
 wait1_12: - 2 y_(9,_2,_2) - 2 y_(9,_2,_3) + t_(9,_1) >= 0
 wait1_13: - 4 y_(9,_3,_2) - 4 y_(9,_3,_3) + t_(9,_1) >= 0
 wait1_14: - 4 y_(9,_4,_2) - 4 y_(9,_4,_3) + t_(9,_1) >= 0
 wait1_15: - 2 y_(9,_5,_2) - 2 y_(9,_5,_3) + t_(9,_1) >= 0
 wait1_16: - 4 y_(9,_6,_2) - 4 y_(9,_6,_3) + t_(9,_1) >= 0
 wait1_17: - 2 y_(9,_7,_2) - 2 y_(9,_7,_3) + t_(9,_1) >= 0
 wait1_18: - 4 y_(9,_8,_2) - 4 y_(9,_8,_3) + t_(9,_1) >= 0
 wait1_19: - 4 y_(9,_10,_2) - 4 y_(9,_10,_3) + t_(9,_1) >= 0
 wait1_20: - 2 y_(10,_11,_0) - 2 y_(10,_11,_1) + t_(10,_0) >= 0
 wait1_21: - 4 y_(10,_1,_0) - 4 y_(10,_1,_1) + t_(10,_0) >= 0
 wait1_22: - 2 y_(10,_2,_0) - 2 y_(10,_2,_1) + t_(10,_0) >= 0
 wait1_23: - 2 y_(10,_3,_0) - 2 y_(10,_3,_1) + t_(10,_0) >= 0
 wait1_24: - 4 y_(10,_4,_0) - 4 y_(10,_4,_1) + t_(10,_0) >= 0
 wait1_25: - 2 y_(10,_5,_0) - 2 y_(10,_5,_1) + t_(10,_0) >= 0
 wait1_26: - 4 y_(10,_6,_0) - 4 y_(10,_6,_1) + t_(10,_0) >= 0
 wait1_27: - 4 y_(10,_7,_0) - 4 y_(10,_7,_1) + t_(10,_0) >= 0
 wait1_28: - 2 y_(10,_8,_0) - 2 y_(10,_8,_1) + t_(10,_0) >= 0
 wait1_29: - 4 y_(10,_9,_0) - 4 y_(10,_9,_1) + t_(10,_0) >= 0
 wait1_30: - 2 y_(10,_11,_2) - 2 y_(10,_11,_3) + t_(10,_1) >= 0
 wait1_31: - 4 y_(10,_1,_2) - 4 y_(10,_1,_3) + t_(10,_1) >= 0
 wait1_32: - 2 y_(10,_2,_2) - 2 y_(10,_2,_3) + t_(10,_1) >= 0
 wait1_33: - 2 y_(10,_3,_2) - 2 y_(10,_3,_3) + t_(10,_1) >= 0
 wait1_34: - 4 y_(10,_4,_2) - 4 y_(10,_4,_3) + t_(10,_1) >= 0
 wait1_35: - 2 y_(10,_5,_2) - 2 y_(10,_5,_3) + t_(10,_1) >= 0
 wait1_36: - 4 y_(10,_6,_2) - 4 y_(10,_6,_3) + t_(10,_1) >= 0
 wait1_37: - 4 y_(10,_7,_2) - 4 y_(10,_7,_3) + t_(10,_1) >= 0
 wait1_38: - 2 y_(10,_8,_2) - 2 y_(10,_8,_3) + t_(10,_1) >= 0
 wait1_39: - 4 y_(10,_9,_2) - 4 y_(10,_9,_3) + t_(10,_1) >= 0
 wait2_40: t_(0,_0) <= 0
 wait2_41: t_(0,_1) <= 0
 wait2_42: t_(1,_0) <= 0
 wait2_43: t_(1,_1) <= 0
 wait2_44: t_(2,_0) <= 0
 wait2_45: t_(2,_1) <= 0
 wait2_46: t_(3,_0) <= 0
 wait2_47: t_(3,_1) <= 0
 wait2_48: t_(4,_0) <= 0
 wait2_49: t_(4,_1) <= 0
 wait2_50: t_(5,_0) <= 0
 wait2_51: t_(5,_1) <= 0
 wait2_52: t_(6,_0) <= 0
 wait2_53: t_(6,_1) <= 0
 wait2_54: t_(7,_0) <= 0
 wait2_55: t_(7,_1) <= 0
 wait2_56: t_(8,_0) <= 0
 wait2_57: t_(8,_1) <= 0
 wait2_58: t_(11,_0) <= 0
 wait2_59: t_(11,_1) <= 0
 realized1_0: ad_(0,_0) <= 0
 realized1_1: ad_(0,_1) <= 0
 realized1_2: ad_(0,_2) <= 0
 realized1_3: ad_(0,_3) <= 0
 realized2_4: t_1 - ak_(1,_0) >= 0
 realized2_5: t_1 - ak_(1,_1) >= 0
 realized2_6: t_2 - ak_(2,_0) >= 0
 realized2_7: t_2 - ak_(2,_1) >= 0
 realized2_8: t_3 - ak_(3,_0) >= 0
 realized2_9: t_3 - ak_(3,_1) >= 0
 realized2_10: t_4 - ak_(4,_0) >= 0
 realized2_11: t_4 - ak_(4,_1) >= 0
 realized2_12: t_5 - ak_(5,_0) >= 0
 realized2_13: t_5 - ak_(5,_1) >= 0
 realized2_14: t_6 - ak_(6,_0) >= 0
 realized2_15: t_6 - ak_(6,_1) >= 0
 realized2_16: t_7 - ak_(7,_0) >= 0
 realized2_17: t_7 - ak_(7,_1) >= 0
 realized2_18: t_8 - ak_(8,_0) >= 0
 realized2_19: t_8 - ak_(8,_1) >= 0
 realized3_20: ak_(0,_0) <= 0
 realized3_21: ak_(0,_1) <= 0
 realized4_22: t_1 - ad_(1,_0) >= 0
 realized4_23: t_1 - ad_(1,_1) >= 0
 realized4_24: t_1 - ad_(1,_2) >= 0
 realized4_25: t_1 - ad_(1,_3) >= 0
 realized4_26: t_2 - ad_(2,_0) >= 0
 realized4_27: t_2 - ad_(2,_1) >= 0
 realized4_28: t_2 - ad_(2,_2) >= 0
 realized4_29: t_2 - ad_(2,_3) >= 0
 realized4_30: t_3 - ad_(3,_0) >= 0
 realized4_31: t_3 - ad_(3,_1) >= 0
 realized4_32: t_3 - ad_(3,_2) >= 0
 realized4_33: t_3 - ad_(3,_3) >= 0
 realized4_34: t_4 - ad_(4,_0) >= 0
 realized4_35: t_4 - ad_(4,_1) >= 0
 realized4_36: t_4 - ad_(4,_2) >= 0
 realized4_37: t_4 - ad_(4,_3) >= 0
 realized4_38: t_5 - ad_(5,_0) >= 0
 realized4_39: t_5 - ad_(5,_1) >= 0
 realized4_40: t_5 - ad_(5,_2) >= 0
 realized4_41: t_5 - ad_(5,_3) >= 0
 realized4_42: t_6 - ad_(6,_0) >= 0
 realized4_43: t_6 - ad_(6,_1) >= 0
 realized4_44: t_6 - ad_(6,_2) >= 0
 realized4_45: t_6 - ad_(6,_3) >= 0
 realized4_46: t_7 - ad_(7,_0) >= 0
 realized4_47: t_7 - ad_(7,_1) >= 0
 realized4_48: t_7 - ad_(7,_2) >= 0
 realized4_49: t_7 - ad_(7,_3) >= 0
 realized4_50: t_8 - ad_(8,_0) >= 0
 realized4_51: t_8 - ad_(8,_1) >= 0
 realized4_52: t_8 - ad_(8,_2) >= 0
 realized4_53: t_8 - ad_(8,_3) >= 0
 realized5_54: - 10040 x_(0,_1,_0) - t_(0,_0) - ak_(0,_0) + ak_(1,_0)
   >= -10000
 realized5_55: - 10040 x_(0,_1,_1) - t_(0,_1) - ak_(0,_1) + ak_(1,_1)
   >= -10000
 realized5_56: - 10027 x_(9,_1,_0) + ak_(1,_0) - t_(9,_0) - ak_(9,_0)
   >= -10000
 realized5_57: - 10027 x_(9,_1,_1) + ak_(1,_1) - t_(9,_1) - ak_(9,_1)
   >= -10000
 realized5_58: - 10029 x_(10,_1,_0) + ak_(1,_0) - t_(10,_0) - ak_(10,_0)
   >= -10000
 realized5_59: - 10029 x_(10,_1,_1) + ak_(1,_1) - t_(10,_1) - ak_(10,_1)
   >= -10000
 realized5_60: - 10014 x_(2,_1,_0) + ak_(1,_0) - t_(2,_0) - ak_(2,_0)
   >= -10000
 realized5_61: - 10014 x_(2,_1,_1) + ak_(1,_1) - t_(2,_1) - ak_(2,_1)
   >= -10000
 realized5_62: - 10021 x_(3,_1,_0) + ak_(1,_0) - t_(3,_0) - ak_(3,_0)
   >= -10000
 realized5_63: - 10021 x_(3,_1,_1) + ak_(1,_1) - t_(3,_1) - ak_(3,_1)
   >= -10000
 realized5_64: - 10030 x_(4,_1,_0) + ak_(1,_0) - t_(4,_0) - ak_(4,_0)
   >= -10000
 realized5_65: - 10030 x_(4,_1,_1) + ak_(1,_1) - t_(4,_1) - ak_(4,_1)
   >= -10000
 realized5_66: - 10025 x_(7,_1,_0) + ak_(1,_0) - t_(7,_0) - ak_(7,_0)
   >= -10000
 realized5_67: - 10025 x_(7,_1,_1) + ak_(1,_1) - t_(7,_1) - ak_(7,_1)
   >= -10000
 realized5_68: - 10021 x_(8,_1,_0) + ak_(1,_0) - t_(8,_0) - ak_(8,_0)
   >= -10000
 realized5_69: - 10021 x_(8,_1,_1) + ak_(1,_1) - t_(8,_1) - ak_(8,_1)
   >= -10000
 realized5_70: - 10023 x_(5,_1,_0) + ak_(1,_0) - t_(5,_0) - ak_(5,_0)
   >= -10000
 realized5_71: - 10023 x_(5,_1,_1) + ak_(1,_1) - t_(5,_1) - ak_(5,_1)
   >= -10000
 realized5_72: - 10045 x_(6,_1,_0) + ak_(1,_0) - t_(6,_0) - ak_(6,_0)
   >= -10000
 realized5_73: - 10045 x_(6,_1,_1) + ak_(1,_1) - t_(6,_1) - ak_(6,_1)
   >= -10000
 realized5_74: - 10047 x_(0,_2,_0) - t_(0,_0) - ak_(0,_0) + ak_(2,_0)
   >= -10000
 realized5_75: - 10047 x_(0,_2,_1) - t_(0,_1) - ak_(0,_1) + ak_(2,_1)
   >= -10000
 realized5_76: - 10024 x_(9,_2,_0) + ak_(2,_0) - t_(9,_0) - ak_(9,_0)
   >= -10000
 realized5_77: - 10024 x_(9,_2,_1) + ak_(2,_1) - t_(9,_1) - ak_(9,_1)
   >= -10000
 realized5_78: - 10032 x_(10,_2,_0) + ak_(2,_0) - t_(10,_0) - ak_(10,_0)
   >= -10000
 realized5_79: - 10032 x_(10,_2,_1) + ak_(2,_1) - t_(10,_1) - ak_(10,_1)
   >= -10000
 realized5_80: - 10014 x_(1,_2,_0) - t_(1,_0) - ak_(1,_0) + ak_(2,_0)
   >= -10000
 realized5_81: - 10014 x_(1,_2,_1) - t_(1,_1) - ak_(1,_1) + ak_(2,_1)
   >= -10000
 realized5_82: - 10026 x_(3,_2,_0) + ak_(2,_0) - t_(3,_0) - ak_(3,_0)
   >= -10000
 realized5_83: - 10026 x_(3,_2,_1) + ak_(2,_1) - t_(3,_1) - ak_(3,_1)
   >= -10000
 realized5_84: - 10038 x_(5,_2,_0) + ak_(2,_0) - t_(5,_0) - ak_(5,_0)
   >= -10000
 realized5_85: - 10038 x_(5,_2,_1) + ak_(2,_1) - t_(5,_1) - ak_(5,_1)
   >= -10000
 realized5_86: - 10013 x_(6,_2,_0) + ak_(2,_0) - t_(6,_0) - ak_(6,_0)
   >= -10000
 realized5_87: - 10013 x_(6,_2,_1) + ak_(2,_1) - t_(6,_1) - ak_(6,_1)
   >= -10000
 realized5_88: - 10012 x_(8,_2,_0) + ak_(2,_0) - t_(8,_0) - ak_(8,_0)
   >= -10000
 realized5_89: - 10012 x_(8,_2,_1) + ak_(2,_1) - t_(8,_1) - ak_(8,_1)
   >= -10000
 realized5_90: - 10022 x_(0,_3,_0) - t_(0,_0) - ak_(0,_0) + ak_(3,_0)
   >= -10000
 realized5_91: - 10022 x_(0,_3,_1) - t_(0,_1) - ak_(0,_1) + ak_(3,_1)
   >= -10000
 realized5_92: - 10022 x_(9,_3,_0) + ak_(3,_0) - t_(9,_0) - ak_(9,_0)
   >= -10000
 realized5_93: - 10022 x_(9,_3,_1) + ak_(3,_1) - t_(9,_1) - ak_(9,_1)
   >= -10000
 realized5_94: - 10045 x_(10,_3,_0) + ak_(3,_0) - t_(10,_0) - ak_(10,_0)
   >= -10000
 realized5_95: - 10045 x_(10,_3,_1) + ak_(3,_1) - t_(10,_1) - ak_(10,_1)
   >= -10000
 realized5_96: - 10021 x_(1,_3,_0) - t_(1,_0) - ak_(1,_0) + ak_(3,_0)
   >= -10000
 realized5_97: - 10021 x_(1,_3,_1) - t_(1,_1) - ak_(1,_1) + ak_(3,_1)
   >= -10000
 realized5_98: - 10026 x_(2,_3,_0) - t_(2,_0) - ak_(2,_0) + ak_(3,_0)
   >= -10000
 realized5_99: - 10026 x_(2,_3,_1) - t_(2,_1) - ak_(2,_1) + ak_(3,_1)
   >= -10000
 realized5_100: - 10050 x_(4,_3,_0) + ak_(3,_0) - t_(4,_0) - ak_(4,_0)
   >= -10000
 realized5_101: - 10050 x_(4,_3,_1) + ak_(3,_1) - t_(4,_1) - ak_(4,_1)
   >= -10000
 realized5_102: - 10018 x_(5,_3,_0) + ak_(3,_0) - t_(5,_0) - ak_(5,_0)
   >= -10000
 realized5_103: - 10018 x_(5,_3,_1) + ak_(3,_1) - t_(5,_1) - ak_(5,_1)
   >= -10000
 realized5_104: - 10020 x_(7,_3,_0) + ak_(3,_0) - t_(7,_0) - ak_(7,_0)
   >= -10000
 realized5_105: - 10020 x_(7,_3,_1) + ak_(3,_1) - t_(7,_1) - ak_(7,_1)
   >= -10000
 realized5_106: - 10026 x_(0,_4,_0) - t_(0,_0) - ak_(0,_0) + ak_(4,_0)
   >= -10000
 realized5_107: - 10026 x_(0,_4,_1) - t_(0,_1) - ak_(0,_1) + ak_(4,_1)
   >= -10000
 realized5_108: - 10036 x_(9,_4,_0) + ak_(4,_0) - t_(9,_0) - ak_(9,_0)
   >= -10000
 realized5_109: - 10036 x_(9,_4,_1) + ak_(4,_1) - t_(9,_1) - ak_(9,_1)
   >= -10000
 realized5_110: - 10050 x_(10,_4,_0) + ak_(4,_0) - t_(10,_0) - ak_(10,_0)
   >= -10000
 realized5_111: - 10050 x_(10,_4,_1) + ak_(4,_1) - t_(10,_1) - ak_(10,_1)
   >= -10000
 realized5_112: - 10030 x_(1,_4,_0) - t_(1,_0) - ak_(1,_0) + ak_(4,_0)
   >= -10000
 realized5_113: - 10030 x_(1,_4,_1) - t_(1,_1) - ak_(1,_1) + ak_(4,_1)
   >= -10000
 realized5_114: - 10050 x_(3,_4,_0) - t_(3,_0) - ak_(3,_0) + ak_(4,_0)
   >= -10000
 realized5_115: - 10050 x_(3,_4,_1) - t_(3,_1) - ak_(3,_1) + ak_(4,_1)
   >= -10000
 realized5_116: - 10045 x_(6,_4,_0) + ak_(4,_0) - t_(6,_0) - ak_(6,_0)
   >= -10000
 realized5_117: - 10045 x_(6,_4,_1) + ak_(4,_1) - t_(6,_1) - ak_(6,_1)
   >= -10000
 realized5_118: - 10022 x_(7,_4,_0) + ak_(4,_0) - t_(7,_0) - ak_(7,_0)
   >= -10000
 realized5_119: - 10022 x_(7,_4,_1) + ak_(4,_1) - t_(7,_1) - ak_(7,_1)
   >= -10000
 realized5_120: - 10050 x_(0,_5,_0) - t_(0,_0) - ak_(0,_0) + ak_(5,_0)
   >= -10000
 realized5_121: - 10050 x_(0,_5,_1) - t_(0,_1) - ak_(0,_1) + ak_(5,_1)
   >= -10000
 realized5_122: - 10021 x_(9,_5,_0) + ak_(5,_0) - t_(9,_0) - ak_(9,_0)
   >= -10000
 realized5_123: - 10021 x_(9,_5,_1) + ak_(5,_1) - t_(9,_1) - ak_(9,_1)
   >= -10000
 realized5_124: - 10012 x_(10,_5,_0) + ak_(5,_0) - t_(10,_0) - ak_(10,_0)
   >= -10000
 realized5_125: - 10012 x_(10,_5,_1) + ak_(5,_1) - t_(10,_1) - ak_(10,_1)
   >= -10000
 realized5_126: - 10038 x_(2,_5,_0) - t_(2,_0) - ak_(2,_0) + ak_(5,_0)
   >= -10000
 realized5_127: - 10038 x_(2,_5,_1) - t_(2,_1) - ak_(2,_1) + ak_(5,_1)
   >= -10000
 realized5_128: - 10018 x_(3,_5,_0) - t_(3,_0) - ak_(3,_0) + ak_(5,_0)
   >= -10000
 realized5_129: - 10018 x_(3,_5,_1) - t_(3,_1) - ak_(3,_1) + ak_(5,_1)
   >= -10000
 realized5_130: - 10023 x_(1,_5,_0) - t_(1,_0) - ak_(1,_0) + ak_(5,_0)
   >= -10000
 realized5_131: - 10023 x_(1,_5,_1) - t_(1,_1) - ak_(1,_1) + ak_(5,_1)
   >= -10000
 realized5_132: - 10032 x_(7,_5,_0) + ak_(5,_0) - t_(7,_0) - ak_(7,_0)
   >= -10000
 realized5_133: - 10032 x_(7,_5,_1) + ak_(5,_1) - t_(7,_1) - ak_(7,_1)
   >= -10000
 realized5_134: - 10027 x_(8,_5,_0) + ak_(5,_0) - t_(8,_0) - ak_(8,_0)
   >= -10000
 realized5_135: - 10027 x_(8,_5,_1) + ak_(5,_1) - t_(8,_1) - ak_(8,_1)
   >= -10000
 realized5_136: - 10020 x_(6,_5,_0) + ak_(5,_0) - t_(6,_0) - ak_(6,_0)
   >= -10000
 realized5_137: - 10020 x_(6,_5,_1) + ak_(5,_1) - t_(6,_1) - ak_(6,_1)
   >= -10000
 realized5_138: - 10032 x_(0,_6,_0) - t_(0,_0) - ak_(0,_0) + ak_(6,_0)
   >= -10000
 realized5_139: - 10032 x_(0,_6,_1) - t_(0,_1) - ak_(0,_1) + ak_(6,_1)
   >= -10000
 realized5_140: - 10028 x_(9,_6,_0) + ak_(6,_0) - t_(9,_0) - ak_(9,_0)
   >= -10000
 realized5_141: - 10028 x_(9,_6,_1) + ak_(6,_1) - t_(9,_1) - ak_(9,_1)
   >= -10000
 realized5_142: - 10022 x_(10,_6,_0) + ak_(6,_0) - t_(10,_0) - ak_(10,_0)
   >= -10000
 realized5_143: - 10022 x_(10,_6,_1) + ak_(6,_1) - t_(10,_1) - ak_(10,_1)
   >= -10000
 realized5_144: - 10013 x_(2,_6,_0) - t_(2,_0) - ak_(2,_0) + ak_(6,_0)
   >= -10000
 realized5_145: - 10013 x_(2,_6,_1) - t_(2,_1) - ak_(2,_1) + ak_(6,_1)
   >= -10000
 realized5_146: - 10045 x_(4,_6,_0) - t_(4,_0) - ak_(4,_0) + ak_(6,_0)
   >= -10000
 realized5_147: - 10045 x_(4,_6,_1) - t_(4,_1) - ak_(4,_1) + ak_(6,_1)
   >= -10000
 realized5_148: - 10045 x_(1,_6,_0) - t_(1,_0) - ak_(1,_0) + ak_(6,_0)
   >= -10000
 realized5_149: - 10045 x_(1,_6,_1) - t_(1,_1) - ak_(1,_1) + ak_(6,_1)
   >= -10000
 realized5_150: - 10020 x_(5,_6,_0) - t_(5,_0) - ak_(5,_0) + ak_(6,_0)
   >= -10000
 realized5_151: - 10020 x_(5,_6,_1) - t_(5,_1) - ak_(5,_1) + ak_(6,_1)
   >= -10000
 realized5_152: - 10016 x_(7,_6,_0) + ak_(6,_0) - t_(7,_0) - ak_(7,_0)
   >= -10000
 realized5_153: - 10016 x_(7,_6,_1) + ak_(6,_1) - t_(7,_1) - ak_(7,_1)
   >= -10000
 realized5_154: - 10043 x_(0,_7,_0) - t_(0,_0) - ak_(0,_0) + ak_(7,_0)
   >= -10000
 realized5_155: - 10043 x_(0,_7,_1) - t_(0,_1) - ak_(0,_1) + ak_(7,_1)
   >= -10000
 realized5_156: - 10038 x_(9,_7,_0) + ak_(7,_0) - t_(9,_0) - ak_(9,_0)
   >= -10000
 realized5_157: - 10038 x_(9,_7,_1) + ak_(7,_1) - t_(9,_1) - ak_(9,_1)
   >= -10000
 realized5_158: - 10013 x_(10,_7,_0) + ak_(7,_0) - t_(10,_0) - ak_(10,_0)
   >= -10000
 realized5_159: - 10013 x_(10,_7,_1) + ak_(7,_1) - t_(10,_1) - ak_(10,_1)
   >= -10000
 realized5_160: - 10025 x_(1,_7,_0) - t_(1,_0) - ak_(1,_0) + ak_(7,_0)
   >= -10000
 realized5_161: - 10025 x_(1,_7,_1) - t_(1,_1) - ak_(1,_1) + ak_(7,_1)
   >= -10000
 realized5_162: - 10020 x_(3,_7,_0) - t_(3,_0) - ak_(3,_0) + ak_(7,_0)
   >= -10000
 realized5_163: - 10020 x_(3,_7,_1) - t_(3,_1) - ak_(3,_1) + ak_(7,_1)
   >= -10000
 realized5_164: - 10022 x_(4,_7,_0) - t_(4,_0) - ak_(4,_0) + ak_(7,_0)
   >= -10000
 realized5_165: - 10022 x_(4,_7,_1) - t_(4,_1) - ak_(4,_1) + ak_(7,_1)
   >= -10000
 realized5_166: - 10032 x_(5,_7,_0) - t_(5,_0) - ak_(5,_0) + ak_(7,_0)
   >= -10000
 realized5_167: - 10032 x_(5,_7,_1) - t_(5,_1) - ak_(5,_1) + ak_(7,_1)
   >= -10000
 realized5_168: - 10016 x_(6,_7,_0) - t_(6,_0) - ak_(6,_0) + ak_(7,_0)
   >= -10000
 realized5_169: - 10016 x_(6,_7,_1) - t_(6,_1) - ak_(6,_1) + ak_(7,_1)
   >= -10000
 realized5_170: - 10046 x_(8,_7,_0) + ak_(7,_0) - t_(8,_0) - ak_(8,_0)
   >= -10000
 realized5_171: - 10046 x_(8,_7,_1) + ak_(7,_1) - t_(8,_1) - ak_(8,_1)
   >= -10000
 realized5_172: - 10029 x_(0,_8,_0) - t_(0,_0) - ak_(0,_0) + ak_(8,_0)
   >= -10000
 realized5_173: - 10029 x_(0,_8,_1) - t_(0,_1) - ak_(0,_1) + ak_(8,_1)
   >= -10000
 realized5_174: - 10025 x_(9,_8,_0) + ak_(8,_0) - t_(9,_0) - ak_(9,_0)
   >= -10000
 realized5_175: - 10025 x_(9,_8,_1) + ak_(8,_1) - t_(9,_1) - ak_(9,_1)
   >= -10000
 realized5_176: - 10037 x_(10,_8,_0) + ak_(8,_0) - t_(10,_0) - ak_(10,_0)
   >= -10000
 realized5_177: - 10037 x_(10,_8,_1) + ak_(8,_1) - t_(10,_1) - ak_(10,_1)
   >= -10000
 realized5_178: - 10021 x_(1,_8,_0) - t_(1,_0) - ak_(1,_0) + ak_(8,_0)
   >= -10000
 realized5_179: - 10021 x_(1,_8,_1) - t_(1,_1) - ak_(1,_1) + ak_(8,_1)
   >= -10000
 realized5_180: - 10012 x_(2,_8,_0) - t_(2,_0) - ak_(2,_0) + ak_(8,_0)
   >= -10000
 realized5_181: - 10012 x_(2,_8,_1) - t_(2,_1) - ak_(2,_1) + ak_(8,_1)
   >= -10000
 realized5_182: - 10027 x_(5,_8,_0) - t_(5,_0) - ak_(5,_0) + ak_(8,_0)
   >= -10000
 realized5_183: - 10027 x_(5,_8,_1) - t_(5,_1) - ak_(5,_1) + ak_(8,_1)
   >= -10000
 realized5_184: - 10046 x_(7,_8,_0) - t_(7,_0) - ak_(7,_0) + ak_(8,_0)
   >= -10000
 realized5_185: - 10046 x_(7,_8,_1) - t_(7,_1) - ak_(7,_1) + ak_(8,_1)
   >= -10000
 realized5_186: - 10043 x_(0,_9,_0) - t_(0,_0) - ak_(0,_0) + ak_(9,_0)
   >= -10000
 realized5_187: - 10043 x_(0,_9,_1) - t_(0,_1) - ak_(0,_1) + ak_(9,_1)
   >= -10000
 realized5_188: - 10027 x_(1,_9,_0) - t_(1,_0) - ak_(1,_0) + ak_(9,_0)
   >= -10000
 realized5_189: - 10027 x_(1,_9,_1) - t_(1,_1) - ak_(1,_1) + ak_(9,_1)
   >= -10000
 realized5_190: - 10024 x_(2,_9,_0) - t_(2,_0) - ak_(2,_0) + ak_(9,_0)
   >= -10000
 realized5_191: - 10024 x_(2,_9,_1) - t_(2,_1) - ak_(2,_1) + ak_(9,_1)
   >= -10000
 realized5_192: - 10022 x_(3,_9,_0) - t_(3,_0) - ak_(3,_0) + ak_(9,_0)
   >= -10000
 realized5_193: - 10022 x_(3,_9,_1) - t_(3,_1) - ak_(3,_1) + ak_(9,_1)
   >= -10000
 realized5_194: - 10021 x_(5,_9,_0) - t_(5,_0) - ak_(5,_0) + ak_(9,_0)
   >= -10000
 realized5_195: - 10021 x_(5,_9,_1) - t_(5,_1) - ak_(5,_1) + ak_(9,_1)
   >= -10000
 realized5_196: - 10028 x_(6,_9,_0) - t_(6,_0) - ak_(6,_0) + ak_(9,_0)
   >= -10000
 realized5_197: - 10028 x_(6,_9,_1) - t_(6,_1) - ak_(6,_1) + ak_(9,_1)
   >= -10000
 realized5_198: - 10036 x_(4,_9,_0) - t_(4,_0) - ak_(4,_0) + ak_(9,_0)
   >= -10000
 realized5_199: - 10036 x_(4,_9,_1) - t_(4,_1) - ak_(4,_1) + ak_(9,_1)
   >= -10000
 realized5_200: - 10038 x_(7,_9,_0) - t_(7,_0) - ak_(7,_0) + ak_(9,_0)
   >= -10000
 realized5_201: - 10038 x_(7,_9,_1) - t_(7,_1) - ak_(7,_1) + ak_(9,_1)
   >= -10000
 realized5_202: - 10026 x_(10,_9,_0) + ak_(9,_0) - t_(10,_0) - ak_(10,_0)
   >= -10000
 realized5_203: - 10026 x_(10,_9,_1) + ak_(9,_1) - t_(10,_1) - ak_(10,_1)
   >= -10000
 realized5_204: - 10023 x_(0,_10,_0) - t_(0,_0) - ak_(0,_0) + ak_(10,_0)
   >= -10000
 realized5_205: - 10023 x_(0,_10,_1) - t_(0,_1) - ak_(0,_1) + ak_(10,_1)
   >= -10000
 realized5_206: - 10029 x_(1,_10,_0) - t_(1,_0) - ak_(1,_0) + ak_(10,_0)
   >= -10000
 realized5_207: - 10029 x_(1,_10,_1) - t_(1,_1) - ak_(1,_1) + ak_(10,_1)
   >= -10000
 realized5_208: - 10045 x_(3,_10,_0) - t_(3,_0) - ak_(3,_0) + ak_(10,_0)
   >= -10000
 realized5_209: - 10045 x_(3,_10,_1) - t_(3,_1) - ak_(3,_1) + ak_(10,_1)
   >= -10000
 realized5_210: - 10050 x_(4,_10,_0) - t_(4,_0) - ak_(4,_0) + ak_(10,_0)
   >= -10000
 realized5_211: - 10050 x_(4,_10,_1) - t_(4,_1) - ak_(4,_1) + ak_(10,_1)
   >= -10000
 realized5_212: - 10012 x_(5,_10,_0) - t_(5,_0) - ak_(5,_0) + ak_(10,_0)
   >= -10000
 realized5_213: - 10012 x_(5,_10,_1) - t_(5,_1) - ak_(5,_1) + ak_(10,_1)
   >= -10000
 realized5_214: - 10022 x_(6,_10,_0) - t_(6,_0) - ak_(6,_0) + ak_(10,_0)
   >= -10000
 realized5_215: - 10022 x_(6,_10,_1) - t_(6,_1) - ak_(6,_1) + ak_(10,_1)
   >= -10000
 realized5_216: - 10037 x_(8,_10,_0) - t_(8,_0) - ak_(8,_0) + ak_(10,_0)
   >= -10000
 realized5_217: - 10037 x_(8,_10,_1) - t_(8,_1) - ak_(8,_1) + ak_(10,_1)
   >= -10000
 realized5_218: - 10026 x_(9,_10,_0) - t_(9,_0) - ak_(9,_0) + ak_(10,_0)
   >= -10000
 realized5_219: - 10026 x_(9,_10,_1) - t_(9,_1) - ak_(9,_1) + ak_(10,_1)
   >= -10000
 realized5_220: - 10032 x_(2,_10,_0) - t_(2,_0) - ak_(2,_0) + ak_(10,_0)
   >= -10000
 realized5_221: - 10032 x_(2,_10,_1) - t_(2,_1) - ak_(2,_1) + ak_(10,_1)
   >= -10000
 realized5_222: - 10013 x_(7,_10,_0) - t_(7,_0) - ak_(7,_0) + ak_(10,_0)
   >= -10000
 realized5_223: - 10013 x_(7,_10,_1) - t_(7,_1) - ak_(7,_1) + ak_(10,_1)
   >= -10000
 realized5_224: - 10019 x_(1,_11,_0) - t_(1,_0) - ak_(1,_0) + ak_(11,_0)
   >= -10000
 realized5_225: - 10019 x_(1,_11,_1) - t_(1,_1) - ak_(1,_1) + ak_(11,_1)
   >= -10000
 realized5_226: - 10036 x_(2,_11,_0) - t_(2,_0) - ak_(2,_0) + ak_(11,_0)
   >= -10000
 realized5_227: - 10036 x_(2,_11,_1) - t_(2,_1) - ak_(2,_1) + ak_(11,_1)
   >= -10000
 realized5_228: - 10032 x_(3,_11,_0) - t_(3,_0) - ak_(3,_0) + ak_(11,_0)
   >= -10000
 realized5_229: - 10032 x_(3,_11,_1) - t_(3,_1) - ak_(3,_1) + ak_(11,_1)
   >= -10000
 realized5_230: - 10039 x_(4,_11,_0) - t_(4,_0) - ak_(4,_0) + ak_(11,_0)
   >= -10000
 realized5_231: - 10039 x_(4,_11,_1) - t_(4,_1) - ak_(4,_1) + ak_(11,_1)
   >= -10000
 realized5_232: - 10018 x_(5,_11,_0) - t_(5,_0) - ak_(5,_0) + ak_(11,_0)
   >= -10000
 realized5_233: - 10018 x_(5,_11,_1) - t_(5,_1) - ak_(5,_1) + ak_(11,_1)
   >= -10000
 realized5_234: - 10034 x_(6,_11,_0) - t_(6,_0) - ak_(6,_0) + ak_(11,_0)
   >= -10000
 realized5_235: - 10034 x_(6,_11,_1) - t_(6,_1) - ak_(6,_1) + ak_(11,_1)
   >= -10000
 realized5_236: - 10032 x_(7,_11,_0) - t_(7,_0) - ak_(7,_0) + ak_(11,_0)
   >= -10000
 realized5_237: - 10032 x_(7,_11,_1) - t_(7,_1) - ak_(7,_1) + ak_(11,_1)
   >= -10000
 realized5_238: - 10030 x_(8,_11,_0) - t_(8,_0) - ak_(8,_0) + ak_(11,_0)
   >= -10000
 realized5_239: - 10030 x_(8,_11,_1) - t_(8,_1) - ak_(8,_1) + ak_(11,_1)
   >= -10000
 realized5_240: - 10036 x_(9,_11,_0) - t_(9,_0) - ak_(9,_0) + ak_(11,_0)
   >= -10000
 realized5_241: - 10036 x_(9,_11,_1) - t_(9,_1) - ak_(9,_1) + ak_(11,_1)
   >= -10000
 realized5_242: - 10046 x_(10,_11,_0) - t_(10,_0) - ak_(10,_0) + ak_(11,_0)
   >= -10000
 realized5_243: - 10046 x_(10,_11,_1) - t_(10,_1) - ak_(10,_1) + ak_(11,_1)
   >= -10000
 realized6_244: - 10002 y_(9,_11,_0) - ak_(9,_0) + ad_(11,_0) >= -10000
 realized6_245: - 10002 y_(9,_11,_1) - ak_(9,_0) + ad_(11,_1) >= -10000
 realized6_246: - 10002 y_(9,_11,_2) - ak_(9,_1) + ad_(11,_2) >= -10000
 realized6_247: - 10002 y_(9,_11,_3) - ak_(9,_1) + ad_(11,_3) >= -10000
 realized6_248: - 10002 y_(9,_1,_0) + ad_(1,_0) - ak_(9,_0) >= -10000
 realized6_249: - 10002 y_(9,_1,_1) + ad_(1,_1) - ak_(9,_0) >= -10000
 realized6_250: - 10002 y_(9,_1,_2) + ad_(1,_2) - ak_(9,_1) >= -10000
 realized6_251: - 10002 y_(9,_1,_3) + ad_(1,_3) - ak_(9,_1) >= -10000
 realized6_252: - 10001 y_(9,_2,_0) + ad_(2,_0) - ak_(9,_0) >= -10000
 realized6_253: - 10001 y_(9,_2,_1) + ad_(2,_1) - ak_(9,_0) >= -10000
 realized6_254: - 10001 y_(9,_2,_2) + ad_(2,_2) - ak_(9,_1) >= -10000
 realized6_255: - 10001 y_(9,_2,_3) + ad_(2,_3) - ak_(9,_1) >= -10000
 realized6_256: - 10002 y_(9,_3,_0) + ad_(3,_0) - ak_(9,_0) >= -10000
 realized6_257: - 10002 y_(9,_3,_1) + ad_(3,_1) - ak_(9,_0) >= -10000
 realized6_258: - 10002 y_(9,_3,_2) + ad_(3,_2) - ak_(9,_1) >= -10000
 realized6_259: - 10002 y_(9,_3,_3) + ad_(3,_3) - ak_(9,_1) >= -10000
 realized6_260: - 10002 y_(9,_4,_0) + ad_(4,_0) - ak_(9,_0) >= -10000
 realized6_261: - 10002 y_(9,_4,_1) + ad_(4,_1) - ak_(9,_0) >= -10000
 realized6_262: - 10002 y_(9,_4,_2) + ad_(4,_2) - ak_(9,_1) >= -10000
 realized6_263: - 10002 y_(9,_4,_3) + ad_(4,_3) - ak_(9,_1) >= -10000
 realized6_264: - 10001 y_(9,_5,_0) + ad_(5,_0) - ak_(9,_0) >= -10000
 realized6_265: - 10001 y_(9,_5,_1) + ad_(5,_1) - ak_(9,_0) >= -10000
 realized6_266: - 10001 y_(9,_5,_2) + ad_(5,_2) - ak_(9,_1) >= -10000
 realized6_267: - 10001 y_(9,_5,_3) + ad_(5,_3) - ak_(9,_1) >= -10000
 realized6_268: - 10002 y_(9,_6,_0) + ad_(6,_0) - ak_(9,_0) >= -10000
 realized6_269: - 10002 y_(9,_6,_1) + ad_(6,_1) - ak_(9,_0) >= -10000
 realized6_270: - 10002 y_(9,_6,_2) + ad_(6,_2) - ak_(9,_1) >= -10000
 realized6_271: - 10002 y_(9,_6,_3) + ad_(6,_3) - ak_(9,_1) >= -10000
 realized6_272: - 10001 y_(9,_7,_0) + ad_(7,_0) - ak_(9,_0) >= -10000
 realized6_273: - 10001 y_(9,_7,_1) + ad_(7,_1) - ak_(9,_0) >= -10000
 realized6_274: - 10001 y_(9,_7,_2) + ad_(7,_2) - ak_(9,_1) >= -10000
 realized6_275: - 10001 y_(9,_7,_3) + ad_(7,_3) - ak_(9,_1) >= -10000
 realized6_276: - 10002 y_(9,_8,_0) + ad_(8,_0) - ak_(9,_0) >= -10000
 realized6_277: - 10002 y_(9,_8,_1) + ad_(8,_1) - ak_(9,_0) >= -10000
 realized6_278: - 10002 y_(9,_8,_2) + ad_(8,_2) - ak_(9,_1) >= -10000
 realized6_279: - 10002 y_(9,_8,_3) + ad_(8,_3) - ak_(9,_1) >= -10000
 realized6_280: - 10002 y_(9,_10,_0) - ak_(9,_0) + ad_(10,_0) >= -10000
 realized6_281: - 10002 y_(9,_10,_1) - ak_(9,_0) + ad_(10,_1) >= -10000
 realized6_282: - 10002 y_(9,_10,_2) - ak_(9,_1) + ad_(10,_2) >= -10000
 realized6_283: - 10002 y_(9,_10,_3) - ak_(9,_1) + ad_(10,_3) >= -10000
 realized6_284: - 10001 y_(10,_11,_0) - ak_(10,_0) + ad_(11,_0) >= -10000
 realized6_285: - 10001 y_(10,_11,_1) - ak_(10,_0) + ad_(11,_1) >= -10000
 realized6_286: - 10001 y_(10,_11,_2) - ak_(10,_1) + ad_(11,_2) >= -10000
 realized6_287: - 10001 y_(10,_11,_3) - ak_(10,_1) + ad_(11,_3) >= -10000
 realized6_288: - 10002 y_(10,_1,_0) + ad_(1,_0) - ak_(10,_0) >= -10000
 realized6_289: - 10002 y_(10,_1,_1) + ad_(1,_1) - ak_(10,_0) >= -10000
 realized6_290: - 10002 y_(10,_1,_2) + ad_(1,_2) - ak_(10,_1) >= -10000
 realized6_291: - 10002 y_(10,_1,_3) + ad_(1,_3) - ak_(10,_1) >= -10000
 realized6_292: - 10001 y_(10,_2,_0) + ad_(2,_0) - ak_(10,_0) >= -10000
 realized6_293: - 10001 y_(10,_2,_1) + ad_(2,_1) - ak_(10,_0) >= -10000
 realized6_294: - 10001 y_(10,_2,_2) + ad_(2,_2) - ak_(10,_1) >= -10000
 realized6_295: - 10001 y_(10,_2,_3) + ad_(2,_3) - ak_(10,_1) >= -10000
 realized6_296: - 10001 y_(10,_3,_0) + ad_(3,_0) - ak_(10,_0) >= -10000
 realized6_297: - 10001 y_(10,_3,_1) + ad_(3,_1) - ak_(10,_0) >= -10000
 realized6_298: - 10001 y_(10,_3,_2) + ad_(3,_2) - ak_(10,_1) >= -10000
 realized6_299: - 10001 y_(10,_3,_3) + ad_(3,_3) - ak_(10,_1) >= -10000
 realized6_300: - 10002 y_(10,_4,_0) + ad_(4,_0) - ak_(10,_0) >= -10000
 realized6_301: - 10002 y_(10,_4,_1) + ad_(4,_1) - ak_(10,_0) >= -10000
 realized6_302: - 10002 y_(10,_4,_2) + ad_(4,_2) - ak_(10,_1) >= -10000
 realized6_303: - 10002 y_(10,_4,_3) + ad_(4,_3) - ak_(10,_1) >= -10000
 realized6_304: - 10001 y_(10,_5,_0) + ad_(5,_0) - ak_(10,_0) >= -10000
 realized6_305: - 10001 y_(10,_5,_1) + ad_(5,_1) - ak_(10,_0) >= -10000
 realized6_306: - 10001 y_(10,_5,_2) + ad_(5,_2) - ak_(10,_1) >= -10000
 realized6_307: - 10001 y_(10,_5,_3) + ad_(5,_3) - ak_(10,_1) >= -10000
 realized6_308: - 10002 y_(10,_6,_0) + ad_(6,_0) - ak_(10,_0) >= -10000
 realized6_309: - 10002 y_(10,_6,_1) + ad_(6,_1) - ak_(10,_0) >= -10000
 realized6_310: - 10002 y_(10,_6,_2) + ad_(6,_2) - ak_(10,_1) >= -10000
 realized6_311: - 10002 y_(10,_6,_3) + ad_(6,_3) - ak_(10,_1) >= -10000
 realized6_312: - 10002 y_(10,_7,_0) + ad_(7,_0) - ak_(10,_0) >= -10000
 realized6_313: - 10002 y_(10,_7,_1) + ad_(7,_1) - ak_(10,_0) >= -10000
 realized6_314: - 10002 y_(10,_7,_2) + ad_(7,_2) - ak_(10,_1) >= -10000
 realized6_315: - 10002 y_(10,_7,_3) + ad_(7,_3) - ak_(10,_1) >= -10000
 realized6_316: - 10001 y_(10,_8,_0) + ad_(8,_0) - ak_(10,_0) >= -10000
 realized6_317: - 10001 y_(10,_8,_1) + ad_(8,_1) - ak_(10,_0) >= -10000
 realized6_318: - 10001 y_(10,_8,_2) + ad_(8,_2) - ak_(10,_1) >= -10000
 realized6_319: - 10001 y_(10,_8,_3) + ad_(8,_3) - ak_(10,_1) >= -10000
 realized6_320: - 10002 y_(10,_9,_0) + ad_(9,_0) - ak_(10,_0) >= -10000
 realized6_321: - 10002 y_(10,_9,_1) + ad_(9,_1) - ak_(10,_0) >= -10000
 realized6_322: - 10002 y_(10,_9,_2) + ad_(9,_2) - ak_(10,_1) >= -10000
 realized6_323: - 10002 y_(10,_9,_3) + ad_(9,_3) - ak_(10,_1) >= -10000
Bounds
Binaries
 x_(0,_1,_0) x_(0,_1,_1) y_(0,_1,_0) y_(0,_1,_1) y_(0,_1,_2) y_(0,_1,_3)
 x_(0,_2,_0) x_(0,_2,_1) y_(0,_2,_0) y_(0,_2,_1) y_(0,_2,_2) y_(0,_2,_3)
 x_(0,_3,_0) x_(0,_3,_1) y_(0,_3,_0) y_(0,_3,_1) y_(0,_3,_2) y_(0,_3,_3)
 x_(0,_4,_0) x_(0,_4,_1) y_(0,_4,_0) y_(0,_4,_1) y_(0,_4,_2) y_(0,_4,_3)
 x_(0,_5,_0) x_(0,_5,_1) y_(0,_5,_0) y_(0,_5,_1) y_(0,_5,_2) y_(0,_5,_3)
 x_(0,_6,_0) x_(0,_6,_1) y_(0,_6,_0) y_(0,_6,_1) y_(0,_6,_2) y_(0,_6,_3)
 x_(0,_7,_0) x_(0,_7,_1) y_(0,_7,_0) y_(0,_7,_1) y_(0,_7,_2) y_(0,_7,_3)
 x_(0,_8,_0) x_(0,_8,_1) y_(0,_8,_0) y_(0,_8,_1) y_(0,_8,_2) y_(0,_8,_3)
 x_(0,_9,_0) x_(0,_9,_1) y_(0,_9,_0) y_(0,_9,_1) y_(0,_9,_2) y_(0,_9,_3)
 x_(0,_10,_0) x_(0,_10,_1) y_(0,_10,_0) y_(0,_10,_1) y_(0,_10,_2)
 y_(0,_10,_3) x_(1,_11,_0) x_(1,_11,_1) y_(1,_11,_0) y_(1,_11,_1)
 y_(1,_11,_2) y_(1,_11,_3) x_(1,_2,_0) x_(1,_2,_1) y_(1,_2,_0) y_(1,_2,_1)
 y_(1,_2,_2) y_(1,_2,_3) x_(1,_3,_0) x_(1,_3,_1) y_(1,_3,_0) y_(1,_3,_1)
 y_(1,_3,_2) y_(1,_3,_3) x_(1,_4,_0) x_(1,_4,_1) y_(1,_4,_0) y_(1,_4,_1)
 y_(1,_4,_2) y_(1,_4,_3) x_(1,_7,_0) x_(1,_7,_1) y_(1,_7,_0) y_(1,_7,_1)
 y_(1,_7,_2) y_(1,_7,_3) x_(1,_8,_0) x_(1,_8,_1) y_(1,_8,_0) y_(1,_8,_1)
 y_(1,_8,_2) y_(1,_8,_3) x_(1,_9,_0) x_(1,_9,_1) y_(1,_9,_0) y_(1,_9,_1)
 y_(1,_9,_2) y_(1,_9,_3) x_(1,_10,_0) x_(1,_10,_1) y_(1,_10,_0)
 y_(1,_10,_1) y_(1,_10,_2) y_(1,_10,_3) x_(1,_5,_0) x_(1,_5,_1) y_(1,_5,_0)
 y_(1,_5,_1) y_(1,_5,_2) y_(1,_5,_3) x_(1,_6,_0) x_(1,_6,_1) y_(1,_6,_0)
 y_(1,_6,_1) y_(1,_6,_2) y_(1,_6,_3) x_(2,_11,_0) x_(2,_11,_1) y_(2,_11,_0)
 y_(2,_11,_1) y_(2,_11,_2) y_(2,_11,_3) x_(2,_1,_0) x_(2,_1,_1) y_(2,_1,_0)
 y_(2,_1,_1) y_(2,_1,_2) y_(2,_1,_3) x_(2,_3,_0) x_(2,_3,_1) y_(2,_3,_0)
 y_(2,_3,_1) y_(2,_3,_2) y_(2,_3,_3) x_(2,_5,_0) x_(2,_5,_1) y_(2,_5,_0)
 y_(2,_5,_1) y_(2,_5,_2) y_(2,_5,_3) x_(2,_6,_0) x_(2,_6,_1) y_(2,_6,_0)
 y_(2,_6,_1) y_(2,_6,_2) y_(2,_6,_3) x_(2,_8,_0) x_(2,_8,_1) y_(2,_8,_0)
 y_(2,_8,_1) y_(2,_8,_2) y_(2,_8,_3) x_(2,_9,_0) x_(2,_9,_1) y_(2,_9,_0)
 y_(2,_9,_1) y_(2,_9,_2) y_(2,_9,_3) x_(2,_10,_0) x_(2,_10,_1) y_(2,_10,_0)
 y_(2,_10,_1) y_(2,_10,_2) y_(2,_10,_3) x_(3,_11,_0) x_(3,_11,_1)
 y_(3,_11,_0) y_(3,_11,_1) y_(3,_11,_2) y_(3,_11,_3) x_(3,_1,_0)
 x_(3,_1,_1) y_(3,_1,_0) y_(3,_1,_1) y_(3,_1,_2) y_(3,_1,_3) x_(3,_2,_0)
 x_(3,_2,_1) y_(3,_2,_0) y_(3,_2,_1) y_(3,_2,_2) y_(3,_2,_3) x_(3,_4,_0)
 x_(3,_4,_1) y_(3,_4,_0) y_(3,_4,_1) y_(3,_4,_2) y_(3,_4,_3) x_(3,_5,_0)
 x_(3,_5,_1) y_(3,_5,_0) y_(3,_5,_1) y_(3,_5,_2) y_(3,_5,_3) x_(3,_7,_0)
 x_(3,_7,_1) y_(3,_7,_0) y_(3,_7,_1) y_(3,_7,_2) y_(3,_7,_3) x_(3,_9,_0)
 x_(3,_9,_1) y_(3,_9,_0) y_(3,_9,_1) y_(3,_9,_2) y_(3,_9,_3) x_(3,_10,_0)
 x_(3,_10,_1) y_(3,_10,_0) y_(3,_10,_1) y_(3,_10,_2) y_(3,_10,_3)
 x_(4,_11,_0) x_(4,_11,_1) y_(4,_11,_0) y_(4,_11,_1) y_(4,_11,_2)
 y_(4,_11,_3) x_(4,_1,_0) x_(4,_1,_1) y_(4,_1,_0) y_(4,_1,_1) y_(4,_1,_2)
 y_(4,_1,_3) x_(4,_3,_0) x_(4,_3,_1) y_(4,_3,_0) y_(4,_3,_1) y_(4,_3,_2)
 y_(4,_3,_3) x_(4,_6,_0) x_(4,_6,_1) y_(4,_6,_0) y_(4,_6,_1) y_(4,_6,_2)
 y_(4,_6,_3) x_(4,_7,_0) x_(4,_7,_1) y_(4,_7,_0) y_(4,_7,_1) y_(4,_7,_2)
 y_(4,_7,_3) x_(4,_10,_0) x_(4,_10,_1) y_(4,_10,_0) y_(4,_10,_1)
 y_(4,_10,_2) y_(4,_10,_3) x_(4,_9,_0) x_(4,_9,_1) y_(4,_9,_0) y_(4,_9,_1)
 y_(4,_9,_2) y_(4,_9,_3) x_(5,_11,_0) x_(5,_11,_1) y_(5,_11,_0)
 y_(5,_11,_1) y_(5,_11,_2) y_(5,_11,_3) x_(5,_2,_0) x_(5,_2,_1) y_(5,_2,_0)
 y_(5,_2,_1) y_(5,_2,_2) y_(5,_2,_3) x_(5,_3,_0) x_(5,_3,_1) y_(5,_3,_0)
 y_(5,_3,_1) y_(5,_3,_2) y_(5,_3,_3) x_(5,_1,_0) x_(5,_1,_1) y_(5,_1,_0)
 y_(5,_1,_1) y_(5,_1,_2) y_(5,_1,_3) x_(5,_7,_0) x_(5,_7,_1) y_(5,_7,_0)
 y_(5,_7,_1) y_(5,_7,_2) y_(5,_7,_3) x_(5,_8,_0) x_(5,_8,_1) y_(5,_8,_0)
 y_(5,_8,_1) y_(5,_8,_2) y_(5,_8,_3) x_(5,_9,_0) x_(5,_9,_1) y_(5,_9,_0)
 y_(5,_9,_1) y_(5,_9,_2) y_(5,_9,_3) x_(5,_10,_0) x_(5,_10,_1) y_(5,_10,_0)
 y_(5,_10,_1) y_(5,_10,_2) y_(5,_10,_3) x_(5,_6,_0) x_(5,_6,_1) y_(5,_6,_0)
 y_(5,_6,_1) y_(5,_6,_2) y_(5,_6,_3) x_(6,_11,_0) x_(6,_11,_1) y_(6,_11,_0)
 y_(6,_11,_1) y_(6,_11,_2) y_(6,_11,_3) x_(6,_2,_0) x_(6,_2,_1) y_(6,_2,_0)
 y_(6,_2,_1) y_(6,_2,_2) y_(6,_2,_3) x_(6,_4,_0) x_(6,_4,_1) y_(6,_4,_0)
 y_(6,_4,_1) y_(6,_4,_2) y_(6,_4,_3) x_(6,_1,_0) x_(6,_1,_1) y_(6,_1,_0)
 y_(6,_1,_1) y_(6,_1,_2) y_(6,_1,_3) x_(6,_5,_0) x_(6,_5,_1) y_(6,_5,_0)
 y_(6,_5,_1) y_(6,_5,_2) y_(6,_5,_3) x_(6,_7,_0) x_(6,_7,_1) y_(6,_7,_0)
 y_(6,_7,_1) y_(6,_7,_2) y_(6,_7,_3) x_(6,_9,_0) x_(6,_9,_1) y_(6,_9,_0)
 y_(6,_9,_1) y_(6,_9,_2) y_(6,_9,_3) x_(6,_10,_0) x_(6,_10,_1) y_(6,_10,_0)
 y_(6,_10,_1) y_(6,_10,_2) y_(6,_10,_3) x_(7,_11,_0) x_(7,_11,_1)
 y_(7,_11,_0) y_(7,_11,_1) y_(7,_11,_2) y_(7,_11,_3) x_(7,_1,_0)
 x_(7,_1,_1) y_(7,_1,_0) y_(7,_1,_1) y_(7,_1,_2) y_(7,_1,_3) x_(7,_3,_0)
 x_(7,_3,_1) y_(7,_3,_0) y_(7,_3,_1) y_(7,_3,_2) y_(7,_3,_3) x_(7,_4,_0)
 x_(7,_4,_1) y_(7,_4,_0) y_(7,_4,_1) y_(7,_4,_2) y_(7,_4,_3) x_(7,_5,_0)
 x_(7,_5,_1) y_(7,_5,_0) y_(7,_5,_1) y_(7,_5,_2) y_(7,_5,_3) x_(7,_6,_0)
 x_(7,_6,_1) y_(7,_6,_0) y_(7,_6,_1) y_(7,_6,_2) y_(7,_6,_3) x_(7,_8,_0)
 x_(7,_8,_1) y_(7,_8,_0) y_(7,_8,_1) y_(7,_8,_2) y_(7,_8,_3) x_(7,_9,_0)
 x_(7,_9,_1) y_(7,_9,_0) y_(7,_9,_1) y_(7,_9,_2) y_(7,_9,_3) x_(7,_10,_0)
 x_(7,_10,_1) y_(7,_10,_0) y_(7,_10,_1) y_(7,_10,_2) y_(7,_10,_3)
 x_(8,_11,_0) x_(8,_11,_1) y_(8,_11,_0) y_(8,_11,_1) y_(8,_11,_2)
 y_(8,_11,_3) x_(8,_1,_0) x_(8,_1,_1) y_(8,_1,_0) y_(8,_1,_1) y_(8,_1,_2)
 y_(8,_1,_3) x_(8,_2,_0) x_(8,_2,_1) y_(8,_2,_0) y_(8,_2,_1) y_(8,_2,_2)
 y_(8,_2,_3) x_(8,_5,_0) x_(8,_5,_1) y_(8,_5,_0) y_(8,_5,_1) y_(8,_5,_2)
 y_(8,_5,_3) x_(8,_7,_0) x_(8,_7,_1) y_(8,_7,_0) y_(8,_7,_1) y_(8,_7,_2)
 y_(8,_7,_3) x_(8,_10,_0) x_(8,_10,_1) y_(8,_10,_0) y_(8,_10,_1)
 y_(8,_10,_2) y_(8,_10,_3) x_(9,_11,_0) x_(9,_11,_1) y_(9,_11,_0)
 y_(9,_11,_1) y_(9,_11,_2) y_(9,_11,_3) x_(9,_1,_0) x_(9,_1,_1) y_(9,_1,_0)
 y_(9,_1,_1) y_(9,_1,_2) y_(9,_1,_3) x_(9,_2,_0) x_(9,_2,_1) y_(9,_2,_0)
 y_(9,_2,_1) y_(9,_2,_2) y_(9,_2,_3) x_(9,_3,_0) x_(9,_3,_1) y_(9,_3,_0)
 y_(9,_3,_1) y_(9,_3,_2) y_(9,_3,_3) x_(9,_4,_0) x_(9,_4,_1) y_(9,_4,_0)
 y_(9,_4,_1) y_(9,_4,_2) y_(9,_4,_3) x_(9,_5,_0) x_(9,_5,_1) y_(9,_5,_0)
 y_(9,_5,_1) y_(9,_5,_2) y_(9,_5,_3) x_(9,_6,_0) x_(9,_6,_1) y_(9,_6,_0)
 y_(9,_6,_1) y_(9,_6,_2) y_(9,_6,_3) x_(9,_7,_0) x_(9,_7,_1) y_(9,_7,_0)
 y_(9,_7,_1) y_(9,_7,_2) y_(9,_7,_3) x_(9,_8,_0) x_(9,_8,_1) y_(9,_8,_0)
 y_(9,_8,_1) y_(9,_8,_2) y_(9,_8,_3) x_(9,_10,_0) x_(9,_10,_1) y_(9,_10,_0)
 y_(9,_10,_1) y_(9,_10,_2) y_(9,_10,_3) x_(10,_11,_0) x_(10,_11,_1)
 y_(10,_11,_0) y_(10,_11,_1) y_(10,_11,_2) y_(10,_11,_3) x_(10,_1,_0)
 x_(10,_1,_1) y_(10,_1,_0) y_(10,_1,_1) y_(10,_1,_2) y_(10,_1,_3)
 x_(10,_2,_0) x_(10,_2,_1) y_(10,_2,_0) y_(10,_2,_1) y_(10,_2,_2)
 y_(10,_2,_3) x_(10,_3,_0) x_(10,_3,_1) y_(10,_3,_0) y_(10,_3,_1)
 y_(10,_3,_2) y_(10,_3,_3) x_(10,_4,_0) x_(10,_4,_1) y_(10,_4,_0)
 y_(10,_4,_1) y_(10,_4,_2) y_(10,_4,_3) x_(10,_5,_0) x_(10,_5,_1)
 y_(10,_5,_0) y_(10,_5,_1) y_(10,_5,_2) y_(10,_5,_3) x_(10,_6,_0)
 x_(10,_6,_1) y_(10,_6,_0) y_(10,_6,_1) y_(10,_6,_2) y_(10,_6,_3)
 x_(10,_7,_0) x_(10,_7,_1) y_(10,_7,_0) y_(10,_7,_1) y_(10,_7,_2)
 y_(10,_7,_3) x_(10,_8,_0) x_(10,_8,_1) y_(10,_8,_0) y_(10,_8,_1)
 y_(10,_8,_2) y_(10,_8,_3) x_(10,_9,_0) x_(10,_9,_1) y_(10,_9,_0)
 y_(10,_9,_1) y_(10,_9,_2) y_(10,_9,_3)
End
