\ Model RMP
\ LP format - for model browsing. Use MPS format to capture full model detail.
\ Signature: 0x1d8e64ad6f77d1f3
Minimize
  127.0870967721774 z_0 + 130.2823462011801 z_1 + 127.8151950663525 z_2
   + 145.8639327466194 z_3 + 67.48312956327241 z_4 + 100.2797933664568 z_5
   + 78.76267087964322 z_6 + 133.0943023329634 z_7 + 104.3536031597611 z_8
   + 85.36583824854216 z_9 + 80.60730618216046 z_10
   + 83.26836842699211 z_11 + 97.9842846570112 z_12
   + 88.12044876505243 z_13 + 89.1079214421363 z_14
   + 123.0583243713476 z_15 + 157.047240755729 z_16
   + 234.9423162876179 z_17 + 133.0943023329633 z_18
   + 335.6904255133488 z_19 + 141.2145555896495 z_20
   + 367.1825456790073 z_21 + 145.8639327466194 z_22
   + 153.0153702146532 z_23 + 190.7949377236995 z_24
   + 97.9842846570112 z_25 + 157.0788768917195 z_26
   + 162.7761021295536 z_27 + 176.9521237906149 z_28
   + 157.0788768917195 z_29 + 204.2250361919292 z_30
   + 145.8639327466194 z_31 + 225.5390055316608 z_32
   + 206.3014207697933 z_33 + 145.8639327466194 z_34
   + 204.225036191929 z_35 + 148.488412585832 z_36 + 221.8131973805203 z_37
   + 204.2250361919292 z_38 + 241.3149855463719 z_39
   + 307.7172616290188 z_40 + 332.0854503380373 z_41
   + 265.6831742553904 z_42 + 205.8686384429132 z_43
   + 324.0397595391325 z_44 + 348.407948248151 z_45 + 165.20361107556 z_46
   + 241.3149855463719 z_47 + 324.0397595391325 z_48
   + 307.7172616290188 z_49 + 348.407948248151 z_50
   + 157.0074408419229 z_51 + 332.0854503380373 z_52
   + 214.0648086765503 z_53 + 344.1912082613957 z_54 + 198.87915647879 z_55
   + 207.6782807865916 z_56 + 172.3150360447615 z_57
   + 248.4360230847488 z_58 + 134.6839204943607 z_59
   + 219.505573576011 z_60 + 306.813281048562 z_61 + 364.4736029573539 z_62
   + 277.1658954848029 z_63 + 265.6831742553904 z_64
   + 261.9802432870426 z_65 + 256.5394783875819 z_66
   + 204.2250361919292 z_67 + 203.7175729167106 z_68
   + 275.7131093014988 z_69 + 194.0807555403468 z_70
   + 261.0424821010183 z_71 + 145.8639327466194 z_72
   + 336.3720014609488 z_73 + 289.7016692999672 z_74
   + 214.6677627507148 z_75 + 361.7181976231776 z_76
   + 245.8613276983041 z_77 + 295.3300106604054 z_78
   + 228.3046978838127 z_79 + 217.7061329151791 z_80
   + 181.315114056232 z_81 + 242.941953141337 z_82 + 237.665157464667 z_83
   + 248.3827180407978 z_84 + 341.4358029272194 z_85
   + 268.9697252511659 z_86 + 204.225036191929 z_87
   + 254.7523237765008 z_88 + 275.0310420994868 z_89
   + 268.9283454375621 z_90 + 293.2201105114094 z_91
   + 428.7435103997704 z_92 + 356.2774327237169 z_93
   + 330.873310816488 z_94 + 286.9038098196575 z_95
   + 369.9143678568147 z_96 + 290.0688255553699 z_97
   + 333.1690351708551 z_98 + 211.6373853548382 z_99
   + 324.972864937218 z_100 + 240.4205627988433 z_101
   + 460.6139418234077 z_102 + 423.8686091374481 z_103
   + 388.1478641473541 z_104 + 351.4025314613945 z_105
   + 325.3868236210567 z_106 + 251.6953694962256 z_107
   + 319.946058721596 z_108 + 252.4156252502912 z_109
   + 324.6303263795098 z_110 + 277.3648759044494 z_111
Subject To
 visit_customer_0: z_0 + z_19 + z_20 + z_27 + z_28 + z_32 + z_40 + z_41
   + z_43 + z_49 + z_51 + z_52 + z_70 + z_71 + z_75 + z_76 + z_82 + z_83
   + z_84 + z_85 + z_86 + z_89 + z_92 + z_93 + z_97 + z_99 + z_100 + z_109
   + z_111 = 1
 visit_customer_1: z_1 + z_19 + z_20 + z_44 + z_45 + z_46 + z_48 + z_50
   + z_53 + z_54 + z_55 + z_56 + z_57 + z_58 + z_60 + z_61 + z_62 + z_63
   + z_65 + z_66 + z_69 + z_70 + z_73 + z_74 + z_77 + z_78 + z_79 + z_82
   + z_84 + z_88 + z_90 + z_91 + z_94 + z_95 + z_96 + z_97 + z_98 + z_99
   + z_101 + z_109 = 1
 visit_customer_2: z_2 + z_16 + z_33 + z_41 + z_42 + z_45 + z_50 + z_52
   + z_64 + z_74 + z_80 + z_81 + z_89 = 1
 visit_customer_3: z_3 + z_16 + z_21 + z_22 + z_23 + z_26 + z_29 + z_30
   + z_31 + z_34 + z_35 + z_36 + z_37 + z_38 + z_39 + z_40 + z_41 + z_42
   + z_44 + z_45 + z_47 + z_48 + z_49 + z_50 + z_52 + z_64 + z_67 + z_68
   + z_69 + z_71 + z_72 + z_73 + z_74 + z_80 + z_81 + z_87 + z_89 = 1
 visit_customer_4: z_4 + z_18 + z_72 + z_87 = 1
 visit_customer_5: z_5 + z_19 + z_33 + z_61 + z_62 + z_76 + z_92 + z_93
   + z_96 + z_98 + z_100 + z_102 + z_103 + z_104 + z_105 = 1
 visit_customer_6: z_6 + z_16 + z_22 + z_23 + z_59 + z_67 + z_68 + z_69
   + z_71 + z_73 + z_74 + z_80 + z_89 = 1
 visit_customer_7: z_7 + z_18 + z_21 + z_30 + z_35 + z_37 + z_38 + z_55
   + z_56 + z_65 + z_66 + z_67 + z_87 = 1
 visit_customer_8: z_8 + z_17 + z_28 + z_39 + z_42 + z_46 + z_47 + z_51
   + z_56 + z_64 + z_68 + z_70 + z_73 + z_75 + z_78 + z_79 + z_80 + z_90
   + z_110 = 1
 visit_customer_9: z_9 + z_17 + z_43 + z_53 + z_54 + z_58 + z_62 + z_63
   + z_66 + z_75 + z_82 + z_86 + z_93 + z_94 + z_95 + z_97 + z_101 + z_104
   + z_105 + z_107 + z_108 + z_110 + z_111 = 1
 visit_customer_10: z_10 + z_15 + z_32 + z_54 + z_59 + z_78 + z_85 + z_92
   + z_102 + z_103 + z_106 + z_108 = 1
 visit_customer_11: z_11 + z_17 + z_24 + z_25 + z_26 + z_27 + z_28 + z_38
   + z_47 + z_48 + z_49 + z_50 + z_52 + z_57 + z_58 + z_64 + z_81 + z_88
   + z_90 + z_91 + z_94 + z_95 + z_97 + z_109 + z_111 = 1
 visit_customer_12: z_12 + z_17 + z_24 + z_25 + z_26 + z_29 + z_30 + z_38
   + z_39 + z_40 + z_41 + z_42 + z_44 + z_45 + z_47 + z_48 + z_49 + z_50
   + z_52 + z_64 + z_77 + z_81 + z_83 + z_91 + z_95 + z_98 + z_99 + z_100
   + z_101 + z_103 + z_105 + z_106 + z_107 + z_108 + z_109 + z_110 + z_111
   = 1
 visit_customer_13: z_13 + z_15 + z_23 + z_34 + z_35 + z_36 + z_37 + z_59
   = 1
 visit_customer_14: z_14 + z_15 + z_31 + z_36 + z_37 + z_60 + z_63 + z_65
   + z_76 + z_77 + z_79 + z_83 + z_84 + z_85 + z_86 + z_88 + z_90 + z_91
   + z_94 + z_96 + z_102 + z_104 + z_106 + z_107 + z_110 = 1
 truck_fleet_ub: z_0 + z_1 + z_2 + z_3 + z_4 + z_5 + z_6 + z_7 + z_8 + z_9
   + z_10 + z_11 + z_12 + z_13 + z_14 + z_15 + z_16 + z_17 + z_18 + z_19
   + z_20 + z_21 + z_22 + z_23 + z_24 + z_25 + z_26 + z_27 + z_28 + z_29
   + z_30 + z_31 + z_32 + z_33 + z_34 + z_35 + z_36 + z_37 + z_38 + z_39
   + z_40 + z_41 + z_42 + z_43 + z_44 + z_45 + z_46 + z_47 + z_48 + z_49
   + z_50 + z_51 + z_52 + z_53 + z_54 + z_55 + z_56 + z_57 + z_58 + z_59
   + z_60 + z_61 + z_62 + z_63 + z_64 + z_65 + z_66 + z_67 + z_68 + z_69
   + z_70 + z_71 + z_72 + z_73 + z_74 + z_75 + z_76 + z_77 + z_78 + z_79
   + z_80 + z_81 + z_82 + z_83 + z_84 + z_85 + z_86 + z_87 + z_88 + z_89
   + z_90 + z_91 + z_92 + z_93 + z_94 + z_95 + z_96 + z_97 + z_98 + z_99
   + z_100 + z_101 + z_102 + z_103 + z_104 + z_105 + z_106 + z_107 + z_108
   + z_109 + z_110 + z_111 <= 5
 truck_fleet_lb: z_0 + z_1 + z_2 + z_3 + z_4 + z_5 + z_6 + z_7 + z_8 + z_9
   + z_10 + z_11 + z_12 + z_13 + z_14 + z_15 + z_16 + z_17 + z_18 + z_19
   + z_20 + z_21 + z_22 + z_23 + z_24 + z_25 + z_26 + z_27 + z_28 + z_29
   + z_30 + z_31 + z_32 + z_33 + z_34 + z_35 + z_36 + z_37 + z_38 + z_39
   + z_40 + z_41 + z_42 + z_43 + z_44 + z_45 + z_46 + z_47 + z_48 + z_49
   + z_50 + z_51 + z_52 + z_53 + z_54 + z_55 + z_56 + z_57 + z_58 + z_59
   + z_60 + z_61 + z_62 + z_63 + z_64 + z_65 + z_66 + z_67 + z_68 + z_69
   + z_70 + z_71 + z_72 + z_73 + z_74 + z_75 + z_76 + z_77 + z_78 + z_79
   + z_80 + z_81 + z_82 + z_83 + z_84 + z_85 + z_86 + z_87 + z_88 + z_89
   + z_90 + z_91 + z_92 + z_93 + z_94 + z_95 + z_96 + z_97 + z_98 + z_99
   + z_100 + z_101 + z_102 + z_103 + z_104 + z_105 + z_106 + z_107 + z_108
   + z_109 + z_110 + z_111 >= 0
 SR_('C1',_'C2',_'C8'): z_19 + z_20 + z_55 + z_56 + z_65 + z_66 + z_70
   + z_82 + z_84 + z_97 + z_99 + z_109 <= 1
 SR_('C1',_'C2',_'C9'): z_19 + z_20 + z_28 + z_46 + z_51 + z_56 + z_70
   + z_73 + z_75 + z_78 + z_79 + z_82 + z_84 + z_90 + z_97 + z_99 + z_109
   <= 1
 SR_('C1',_'C2',_'C4'): z_19 + z_20 + z_40 + z_41 + z_44 + z_45 + z_48
   + z_49 + z_50 + z_52 + z_69 + z_70 + z_71 + z_73 + z_74 + z_82 + z_84
   + z_89 + z_97 + z_99 + z_109 <= 1
 SR_('C1',_'C2',_'C3'): z_19 + z_20 + z_41 + z_45 + z_50 + z_52 + z_70
   + z_74 + z_82 + z_84 + z_89 + z_97 + z_99 + z_109 <= 1
 SR_('C1',_'C2',_'C5'): z_19 + z_20 + z_70 + z_82 + z_84 + z_97 + z_99
   + z_109 <= 1
 SR_('C1',_'C2',_'C7'): z_19 + z_20 + z_69 + z_70 + z_71 + z_73 + z_74
   + z_82 + z_84 + z_89 + z_97 + z_99 + z_109 <= 1
 SR_('C1',_'C2',_'C11'): z_19 + z_20 + z_32 + z_54 + z_70 + z_78 + z_82
   + z_84 + z_85 + z_92 + z_97 + z_99 + z_109 <= 1
 SR_('C1',_'C2',_'C10'): z_19 + z_20 + z_43 + z_53 + z_54 + z_58 + z_62
   + z_63 + z_66 + z_70 + z_75 + z_82 + z_84 + z_86 + z_93 + z_94 + z_95
   + z_97 + z_99 + z_101 + z_109 + z_111 <= 1
 SR_('C1',_'C2',_'C12'): z_19 + z_20 + z_27 + z_28 + z_48 + z_49 + z_50
   + z_52 + z_57 + z_58 + z_70 + z_82 + z_84 + z_88 + z_90 + z_91 + z_94
   + z_95 + z_97 + z_99 + z_109 + z_111 <= 1
 SR_('C1',_'C2',_'C6'): z_19 + z_20 + z_61 + z_62 + z_70 + z_76 + z_82
   + z_84 + z_92 + z_93 + z_96 + z_97 + z_98 + z_99 + z_100 + z_109 <= 1
Bounds
Binaries
 z_0 z_1 z_2 z_3 z_4 z_5 z_6 z_7 z_8 z_9 z_10 z_11 z_12 z_13 z_14 z_15 z_16
 z_17 z_18 z_19 z_20 z_21 z_22 z_23 z_24 z_25 z_26 z_27 z_28 z_29 z_30 z_31
 z_32 z_33 z_34 z_35 z_36 z_37 z_38 z_39 z_40 z_41 z_42 z_43 z_44 z_45 z_46
 z_47 z_48 z_49 z_50 z_51 z_52 z_53 z_54 z_55 z_56 z_57 z_58 z_59 z_60 z_61
 z_62 z_63 z_64 z_65 z_66 z_67 z_68 z_69 z_70 z_71 z_72 z_73 z_74 z_75 z_76
 z_77 z_78 z_79 z_80 z_81 z_82 z_83 z_84 z_85 z_86 z_87 z_88 z_89 z_90 z_91
 z_92 z_93 z_94 z_95 z_96 z_97 z_98 z_99 z_100 z_101 z_102 z_103 z_104
 z_105 z_106 z_107 z_108 z_109 z_110 z_111
End
