Minimize
  obj: 1.6810000000000000e+03 x0 + 4.9400000000000000e+02 x1 + 2.2920000000000000e+03 x2 + 9.1300000000000000e+02 x3 + 5.5500000000000000e+02 x4
	 + 1.3550000000000000e+03 x5 + 7.3100000000000000e+02 x6 + 2.0240000000000000e+03 x7 + 7.3320000000000000e+03 x8 + 1.9033000000000000e+04 x9
	 + 3.4470000000000000e+03 x10 + 2.7307000000000000e+04 x11 + 2.2998000000000000e+04 x12 + 4.2880000000000000e+03 x13 + 9.0630000000000000e+03 x14
	 + 2.3265000000000000e+04 x15 + 9.6460000000000000e+03 x16 + 8.7800000000000000e+03 x17 + 1.5042000000000000e+04 x18 + 9.2520000000000000e+03 x19
	 + 6.0650000000000000e+03 x20 + 6.7560000000000000e+03 x21 + 8.3500000000000000e+03 x22 + 5.5760000000000000e+03 x23 + 3.8470000000000000e+03 x24
	 + 8.7500000000000000e+03 x25 + 5.2920000000000000e+03 x26 + 5.1750000000000000e+03 x27 + 2.8720000000000000e+03 x28 + 4.5590000000000000e+03 x29
	 + 2.3990000000000000e+03 x30 + 5.4450000000000000e+03 x31 + 2.4300000000000000e+03 x32 + 2.9680000000000000e+03 x33 + 5.6000000000000000e+01 x34
	 + 1.0870000000000000e+03 x35 + 1.8160000000000000e+03 x36 + 2.5450000000000000e+03 x37 + 2.8870000000000000e+03 x38 + 1.8160000000000000e+03 x39
	 + 1.9280000000000000e+03 x40 + 7.8700000000000000e+02 x41 + 1.5160000000000000e+03 x42 + 2.3590000000000000e+03 x43 + 2.6570000000000000e+03 x44
	 + 2.6570000000000000e+03 x45 + 2.8400000000000000e+03 x46 + 2.5450000000000000e+03 x47 + 7.8700000000000000e+02 x48 + 1.6300000000000000e+03 x49
	 + 2.6570000000000000e+03 x50 + 2.3590000000000000e+03 x51 + 2.1110000000000000e+03 x52 + 1.8160000000000000e+03 x53 + 2.9520000000000000e+03 x54
	 + 2.8400000000000000e+03 x55 + 2.5450000000000000e+03 x56 + 2.9060000000000000e+03 x57 + 2.6000000000000000e+03 x58 + 2.6570000000000000e+03 x59
	 + 2.9060000000000000e+03 x60 + 1.9280000000000000e+03 x61 + 1.0870000000000000e+03 x62 + 1.8160000000000000e+03 x63 + 9.0100000000000000e+02 x64
	 + 2.6570000000000000e+03 x65 + 3.0180000000000000e+03 x66 + 2.6000000000000000e+03 x67 + 1.6300000000000000e+03 x68 + 2.7230000000000000e+03 x69
	 + 2.7120000000000000e+03 x70 + 2.8400000000000000e+03 x71 + 2.9060000000000000e+03 x72 + 2.9060000000000000e+03 x73 + 2.8950000000000000e+03 x74
	 + 2.6000000000000000e+03 x75 + 2.3010000000000000e+03 x76 + 3.2010000000000000e+03 x77 + 2.1770000000000000e+03 x78 + 2.9610000000000000e+03 x79
	 + 1.8710000000000000e+03 x80 + 2.5450000000000000e+03 x81 + 2.2450000000000000e+03 x82 + 2.6110000000000000e+03 x83 + 2.3010000000000000e+03 x84
	 + 1.6300000000000000e+03 x85 + 2.6570000000000000e+03 x86 + 2.3590000000000000e+03 x87 + 2.7230000000000000e+03 x88 + 2.4140000000000000e+03 x89
	 + 1.8160000000000000e+03 x90 + 2.5450000000000000e+03 x91 + 2.9060000000000000e+03 x92 + 2.6000000000000000e+03 x93 + 1.5160000000000000e+03 x94
	 + 2.6110000000000000e+03 x95 + 2.3010000000000000e+03 x96 + 1.8820000000000000e+03 x97 + 2.6660000000000000e+03 x98 + 1.5720000000000000e+03 x99
	 + 2.7230000000000000e+03 x100 + 2.4140000000000000e+03 x101 + 1.8160000000000000e+03 x102 + 2.5450000000000000e+03 x103 + 2.9060000000000000e+03 x104
	 + 2.6000000000000000e+03 x105 + 1.5160000000000000e+03 x106 + 2.6110000000000000e+03 x107 + 1.8820000000000000e+03 x108 + 2.6660000000000000e+03 x109
	 + 1.5720000000000000e+03 x110 + 3.0180000000000000e+03 x111 + 2.7120000000000000e+03 x112 + 2.4140000000000000e+03 x113 + 1.9940000000000000e+03 x114
	 + 2.7780000000000000e+03 x115 + 1.6850000000000000e+03 x116 + 2.6000000000000000e+03 x117 + 2.1770000000000000e+03 x118 + 2.9610000000000000e+03 x119
	 + 1.8710000000000000e+03 x120 + 7.8700000000000000e+02 x121 + 1.8820000000000000e+03 x122 + 2.6660000000000000e+03 x123 + 1.5720000000000000e+03 x124
	 + 1.1530000000000000e+03 x125 + 1.9370000000000000e+03 x126 + 8.4300000000000000e+02 x127 + 9.3000000000000000e+01 x128
Subject To
 C0 : 1.0000000000000000e+00 x0 + 1.0000000000000000e+00 x8 + 1.0000000000000000e+00 x9 + 1.0000000000000000e+00 x11 + 1.0000000000000000e+00 x12
	 + 1.0000000000000000e+00 x13 + 1.0000000000000000e+00 x14 + 1.0000000000000000e+00 x15 + 1.0000000000000000e+00 x16 + 1.0000000000000000e+00 x17
	 + 1.0000000000000000e+00 x18 + 1.0000000000000000e+00 x20 + 1.0000000000000000e+00 x21 + 1.0000000000000000e+00 x35 + 1.0000000000000000e+00 x36
	 + 1.0000000000000000e+00 x37 + 1.0000000000000000e+00 x39 + 1.0000000000000000e+00 x40 + 1.0000000000000000e+00 x44 + 1.0000000000000000e+00 x45
	 + 1.0000000000000000e+00 x46 + 1.0000000000000000e+00 x47 + 1.0000000000000000e+00 x52 + 1.0000000000000000e+00 x53 + 1.0000000000000000e+00 x54
	 + 1.0000000000000000e+00 x55 + 1.0000000000000000e+00 x56 + 1.0000000000000000e+00 x57 + 1.0000000000000000e+00 x58 + 1.0000000000000000e+00 x59
	 + 1.0000000000000000e+00 x60 + 1.0000000000000000e+00 x66 + 1.0000000000000000e+00 x67 + 1.0000000000000000e+00 x70 + 1.0000000000000000e+00 x71
	 + 1.0000000000000000e+00 x73 + 1.0000000000000000e+00 x74 + 1.0000000000000000e+00 x75 + 1.0000000000000000e+00 x77 + 1.0000000000000000e+00 x78
	 + 1.0000000000000000e+00 x79 + 1.0000000000000000e+00 x80 = 1.0000000000000000e+00
 C1 : 1.0000000000000000e+00 x1 + 1.0000000000000000e+00 x8 + 1.0000000000000000e+00 x9 + 1.0000000000000000e+00 x10 + 1.0000000000000000e+00 x11
	 + 1.0000000000000000e+00 x12 + 1.0000000000000000e+00 x14 + 1.0000000000000000e+00 x15 + 1.0000000000000000e+00 x18 + 1.0000000000000000e+00 x19
	 + 1.0000000000000000e+00 x22 + 1.0000000000000000e+00 x23 + 1.0000000000000000e+00 x31 + 1.0000000000000000e+00 x32 + 1.0000000000000000e+00 x36
	 + 1.0000000000000000e+00 x37 + 1.0000000000000000e+00 x41 + 1.0000000000000000e+00 x42 + 1.0000000000000000e+00 x43 + 1.0000000000000000e+00 x45
	 + 1.0000000000000000e+00 x46 + 1.0000000000000000e+00 x47 + 1.0000000000000000e+00 x57 + 1.0000000000000000e+00 x58 + 1.0000000000000000e+00 x81
	 + 1.0000000000000000e+00 x82 + 1.0000000000000000e+00 x83 + 1.0000000000000000e+00 x84 + 1.0000000000000000e+00 x85 + 1.0000000000000000e+00 x86
	 + 1.0000000000000000e+00 x87 + 1.0000000000000000e+00 x88 + 1.0000000000000000e+00 x89 + 1.0000000000000000e+00 x90 + 1.0000000000000000e+00 x91
	 + 1.0000000000000000e+00 x92 + 1.0000000000000000e+00 x93 + 1.0000000000000000e+00 x94 + 1.0000000000000000e+00 x95 + 1.0000000000000000e+00 x96
	 + 1.0000000000000000e+00 x97 + 1.0000000000000000e+00 x98 + 1.0000000000000000e+00 x99 = 1.0000000000000000e+00
 C2 : 1.0000000000000000e+00 x2 + 1.0000000000000000e+00 x9 + 1.0000000000000000e+00 x10 + 1.0000000000000000e+00 x11 + 1.0000000000000000e+00 x13
	 + 1.0000000000000000e+00 x14 + 1.0000000000000000e+00 x15 + 1.0000000000000000e+00 x16 + 1.0000000000000000e+00 x17 + 1.0000000000000000e+00 x18
	 + 1.0000000000000000e+00 x19 + 1.0000000000000000e+00 x22 + 1.0000000000000000e+00 x24 + 1.0000000000000000e+00 x25 + 1.0000000000000000e+00 x28
	 + 1.0000000000000000e+00 x33 + 1.0000000000000000e+00 x37 + 1.0000000000000000e+00 x39 + 1.0000000000000000e+00 x42 + 1.0000000000000000e+00 x43
	 + 1.0000000000000000e+00 x44 + 1.0000000000000000e+00 x48 + 1.0000000000000000e+00 x49 + 1.0000000000000000e+00 x50 + 1.0000000000000000e+00 x51
	 + 1.0000000000000000e+00 x55 + 1.0000000000000000e+00 x56 + 1.0000000000000000e+00 x60 + 1.0000000000000000e+00 x67 + 1.0000000000000000e+00 x76
	 + 1.0000000000000000e+00 x81 + 1.0000000000000000e+00 x82 + 1.0000000000000000e+00 x83 + 1.0000000000000000e+00 x84 + 1.0000000000000000e+00 x100
	 + 1.0000000000000000e+00 x101 + 1.0000000000000000e+00 x102 + 1.0000000000000000e+00 x103 + 1.0000000000000000e+00 x104 + 1.0000000000000000e+00 x105
	 + 1.0000000000000000e+00 x106 + 1.0000000000000000e+00 x107 + 1.0000000000000000e+00 x108 + 1.0000000000000000e+00 x109 + 1.0000000000000000e+00 x110 = 1.0000000000000000e+00
 C3 : 1.0000000000000000e+00 x3 + 1.0000000000000000e+00 x16 + 1.0000000000000000e+00 x19 + 1.0000000000000000e+00 x20 + 1.0000000000000000e+00 x24
	 + 1.0000000000000000e+00 x25 + 1.0000000000000000e+00 x26 + 1.0000000000000000e+00 x27 + 1.0000000000000000e+00 x29 + 1.0000000000000000e+00 x40
	 + 1.0000000000000000e+00 x43 + 1.0000000000000000e+00 x44 + 1.0000000000000000e+00 x45 + 1.0000000000000000e+00 x49 + 1.0000000000000000e+00 x50
	 + 1.0000000000000000e+00 x51 + 1.0000000000000000e+00 x54 + 1.0000000000000000e+00 x59 + 1.0000000000000000e+00 x61 + 1.0000000000000000e+00 x64
	 + 1.0000000000000000e+00 x65 + 1.0000000000000000e+00 x66 + 1.0000000000000000e+00 x68 + 1.0000000000000000e+00 x69 + 1.0000000000000000e+00 x70
	 + 1.0000000000000000e+00 x85 + 1.0000000000000000e+00 x86 + 1.0000000000000000e+00 x87 + 1.0000000000000000e+00 x88 + 1.0000000000000000e+00 x89
	 + 1.0000000000000000e+00 x100 + 1.0000000000000000e+00 x101 + 1.0000000000000000e+00 x111 + 1.0000000000000000e+00 x112 + 1.0000000000000000e+00 x113
	 + 1.0000000000000000e+00 x114 + 1.0000000000000000e+00 x115 + 1.0000000000000000e+00 x116 = 1.0000000000000000e+00
 C4 : 1.0000000000000000e+00 x4 + 1.0000000000000000e+00 x11 + 1.0000000000000000e+00 x28 + 1.0000000000000000e+00 x29 + 1.0000000000000000e+00 x30
	 + 1.0000000000000000e+00 x31 + 1.0000000000000000e+00 x38 + 1.0000000000000000e+00 x46 + 1.0000000000000000e+00 x50 + 1.0000000000000000e+00 x52
	 + 1.0000000000000000e+00 x54 + 1.0000000000000000e+00 x55 + 1.0000000000000000e+00 x61 + 1.0000000000000000e+00 x62 + 1.0000000000000000e+00 x63
	 + 1.0000000000000000e+00 x65 + 1.0000000000000000e+00 x71 + 1.0000000000000000e+00 x72 + 1.0000000000000000e+00 x74 + 1.0000000000000000e+00 x77
	 + 1.0000000000000000e+00 x81 + 1.0000000000000000e+00 x86 + 1.0000000000000000e+00 x90 + 1.0000000000000000e+00 x91 + 1.0000000000000000e+00 x92
	 + 1.0000000000000000e+00 x93 + 1.0000000000000000e+00 x102 + 1.0000000000000000e+00 x103 + 1.0000000000000000e+00 x104 + 1.0000000000000000e+00 x105
	 + 1.0000000000000000e+00 x111 + 1.0000000000000000e+00 x112 + 1.0000000000000000e+00 x117 + 1.0000000000000000e+00 x118 + 1.0000000000000000e+00 x119
	 + 1.0000000000000000e+00 x120 = 1.0000000000000000e+00
 C5 : 1.0000000000000000e+00 x5 + 1.0000000000000000e+00 x12 + 1.0000000000000000e+00 x15 + 1.0000000000000000e+00 x17 + 1.0000000000000000e+00 x18
	 + 1.0000000000000000e+00 x22 + 1.0000000000000000e+00 x23 + 1.0000000000000000e+00 x25 + 1.0000000000000000e+00 x30 + 1.0000000000000000e+00 x31
	 + 1.0000000000000000e+00 x47 + 1.0000000000000000e+00 x51 + 1.0000000000000000e+00 x53 + 1.0000000000000000e+00 x56 + 1.0000000000000000e+00 x59
	 + 1.0000000000000000e+00 x63 + 1.0000000000000000e+00 x65 + 1.0000000000000000e+00 x68 + 1.0000000000000000e+00 x69 + 1.0000000000000000e+00 x71
	 + 1.0000000000000000e+00 x72 + 1.0000000000000000e+00 x73 + 1.0000000000000000e+00 x75 + 1.0000000000000000e+00 x76 + 1.0000000000000000e+00 x82
	 + 1.0000000000000000e+00 x87 + 1.0000000000000000e+00 x91 + 1.0000000000000000e+00 x94 + 1.0000000000000000e+00 x95 + 1.0000000000000000e+00 x96
	 + 1.0000000000000000e+00 x103 + 1.0000000000000000e+00 x106 + 1.0000000000000000e+00 x107 + 1.0000000000000000e+00 x113 + 1.0000000000000000e+00 x117
	 + 1.0000000000000000e+00 x121 + 1.0000000000000000e+00 x122 + 1.0000000000000000e+00 x123 + 1.0000000000000000e+00 x124 = 1.0000000000000000e+00
 C6 : 1.0000000000000000e+00 x6 + 1.0000000000000000e+00 x26 + 1.0000000000000000e+00 x32 + 1.0000000000000000e+00 x33 + 1.0000000000000000e+00 x38
	 + 1.0000000000000000e+00 x57 + 1.0000000000000000e+00 x60 + 1.0000000000000000e+00 x66 + 1.0000000000000000e+00 x69 + 1.0000000000000000e+00 x72
	 + 1.0000000000000000e+00 x73 + 1.0000000000000000e+00 x77 + 1.0000000000000000e+00 x78 + 1.0000000000000000e+00 x79 + 1.0000000000000000e+00 x83
	 + 1.0000000000000000e+00 x88 + 1.0000000000000000e+00 x92 + 1.0000000000000000e+00 x95 + 1.0000000000000000e+00 x97 + 1.0000000000000000e+00 x98
	 + 1.0000000000000000e+00 x100 + 1.0000000000000000e+00 x104 + 1.0000000000000000e+00 x107 + 1.0000000000000000e+00 x108 + 1.0000000000000000e+00 x109
	 + 1.0000000000000000e+00 x111 + 1.0000000000000000e+00 x114 + 1.0000000000000000e+00 x115 + 1.0000000000000000e+00 x118 + 1.0000000000000000e+00 x119
	 + 1.0000000000000000e+00 x122 + 1.0000000000000000e+00 x123 + 1.0000000000000000e+00 x125 + 1.0000000000000000e+00 x126 = 1.0000000000000000e+00
 C7 : 1.0000000000000000e+00 x7 + 1.0000000000000000e+00 x21 + 1.0000000000000000e+00 x27 + 1.0000000000000000e+00 x58 + 1.0000000000000000e+00 x67
	 + 1.0000000000000000e+00 x70 + 1.0000000000000000e+00 x74 + 1.0000000000000000e+00 x75 + 1.0000000000000000e+00 x76 + 1.0000000000000000e+00 x79
	 + 1.0000000000000000e+00 x80 + 1.0000000000000000e+00 x84 + 1.0000000000000000e+00 x89 + 1.0000000000000000e+00 x93 + 1.0000000000000000e+00 x96
	 + 1.0000000000000000e+00 x98 + 1.0000000000000000e+00 x99 + 1.0000000000000000e+00 x101 + 1.0000000000000000e+00 x105 + 1.0000000000000000e+00 x109
	 + 1.0000000000000000e+00 x110 + 1.0000000000000000e+00 x112 + 1.0000000000000000e+00 x113 + 1.0000000000000000e+00 x115 + 1.0000000000000000e+00 x116
	 + 1.0000000000000000e+00 x117 + 1.0000000000000000e+00 x119 + 1.0000000000000000e+00 x120 + 1.0000000000000000e+00 x123 + 1.0000000000000000e+00 x124
	 + 1.0000000000000000e+00 x126 + 1.0000000000000000e+00 x127 = 1.0000000000000000e+00
 C8 : 1.0000000000000000e+00 x0 + 1.0000000000000000e+00 x1 + 1.0000000000000000e+00 x2 + 1.0000000000000000e+00 x3 + 1.0000000000000000e+00 x4
	 + 1.0000000000000000e+00 x5 + 1.0000000000000000e+00 x6 + 1.0000000000000000e+00 x7 + 1.0000000000000000e+00 x8 + 1.0000000000000000e+00 x9
	 + 1.0000000000000000e+00 x10 + 1.0000000000000000e+00 x11 + 1.0000000000000000e+00 x12 + 1.0000000000000000e+00 x13 + 1.0000000000000000e+00 x14
	 + 1.0000000000000000e+00 x15 + 1.0000000000000000e+00 x16 + 1.0000000000000000e+00 x17 + 1.0000000000000000e+00 x18 + 1.0000000000000000e+00 x19
	 + 1.0000000000000000e+00 x20 + 1.0000000000000000e+00 x21 + 1.0000000000000000e+00 x22 + 1.0000000000000000e+00 x23 + 1.0000000000000000e+00 x24
	 + 1.0000000000000000e+00 x25 + 1.0000000000000000e+00 x26 + 1.0000000000000000e+00 x27 + 1.0000000000000000e+00 x28 + 1.0000000000000000e+00 x29
	 + 1.0000000000000000e+00 x30 + 1.0000000000000000e+00 x31 + 1.0000000000000000e+00 x32 + 1.0000000000000000e+00 x33 + 1.0000000000000000e+00 x34
	 + 1.0000000000000000e+00 x35 + 1.0000000000000000e+00 x36 + 1.0000000000000000e+00 x37 + 1.0000000000000000e+00 x38 + 1.0000000000000000e+00 x39
	 + 1.0000000000000000e+00 x40 + 1.0000000000000000e+00 x41 + 1.0000000000000000e+00 x42 + 1.0000000000000000e+00 x43 + 1.0000000000000000e+00 x44
	 + 1.0000000000000000e+00 x45 + 1.0000000000000000e+00 x46 + 1.0000000000000000e+00 x47 + 1.0000000000000000e+00 x48 + 1.0000000000000000e+00 x49
	 + 1.0000000000000000e+00 x50 + 1.0000000000000000e+00 x51 + 1.0000000000000000e+00 x52 + 1.0000000000000000e+00 x53 + 1.0000000000000000e+00 x54
	 + 1.0000000000000000e+00 x55 + 1.0000000000000000e+00 x56 + 1.0000000000000000e+00 x57 + 1.0000000000000000e+00 x58 + 1.0000000000000000e+00 x59
	 + 1.0000000000000000e+00 x60 + 1.0000000000000000e+00 x61 + 1.0000000000000000e+00 x62 + 1.0000000000000000e+00 x63 + 1.0000000000000000e+00 x64
	 + 1.0000000000000000e+00 x65 + 1.0000000000000000e+00 x66 + 1.0000000000000000e+00 x67 + 1.0000000000000000e+00 x68 + 1.0000000000000000e+00 x69
	 + 1.0000000000000000e+00 x70 + 1.0000000000000000e+00 x71 + 1.0000000000000000e+00 x72 + 1.0000000000000000e+00 x73 + 1.0000000000000000e+00 x74
	 + 1.0000000000000000e+00 x75 + 1.0000000000000000e+00 x76 + 1.0000000000000000e+00 x77 + 1.0000000000000000e+00 x78 + 1.0000000000000000e+00 x79
	 + 1.0000000000000000e+00 x80 + 1.0000000000000000e+00 x81 + 1.0000000000000000e+00 x82 + 1.0000000000000000e+00 x83 + 1.0000000000000000e+00 x84
	 + 1.0000000000000000e+00 x85 + 1.0000000000000000e+00 x86 + 1.0000000000000000e+00 x87 + 1.0000000000000000e+00 x88 + 1.0000000000000000e+00 x89
	 + 1.0000000000000000e+00 x90 + 1.0000000000000000e+00 x91 + 1.0000000000000000e+00 x92 + 1.0000000000000000e+00 x93 + 1.0000000000000000e+00 x94
	 + 1.0000000000000000e+00 x95 + 1.0000000000000000e+00 x96 + 1.0000000000000000e+00 x97 + 1.0000000000000000e+00 x98 + 1.0000000000000000e+00 x99
	 + 1.0000000000000000e+00 x100 + 1.0000000000000000e+00 x101 + 1.0000000000000000e+00 x102 + 1.0000000000000000e+00 x103 + 1.0000000000000000e+00 x104
	 + 1.0000000000000000e+00 x105 + 1.0000000000000000e+00 x106 + 1.0000000000000000e+00 x107 + 1.0000000000000000e+00 x108 + 1.0000000000000000e+00 x109
	 + 1.0000000000000000e+00 x110 + 1.0000000000000000e+00 x111 + 1.0000000000000000e+00 x112 + 1.0000000000000000e+00 x113 + 1.0000000000000000e+00 x114
	 + 1.0000000000000000e+00 x115 + 1.0000000000000000e+00 x116 + 1.0000000000000000e+00 x117 + 1.0000000000000000e+00 x118 + 1.0000000000000000e+00 x119
	 + 1.0000000000000000e+00 x120 + 1.0000000000000000e+00 x121 + 1.0000000000000000e+00 x122 + 1.0000000000000000e+00 x123 + 1.0000000000000000e+00 x124
	 + 1.0000000000000000e+00 x125 + 1.0000000000000000e+00 x126 + 1.0000000000000000e+00 x127 + 1.0000000000000000e+00 x128 <= 5.0000000000000000e+00
 C9 : 1.0000000000000000e+00 x0 + 1.0000000000000000e+00 x1 + 1.0000000000000000e+00 x2 + 1.0000000000000000e+00 x3 + 1.0000000000000000e+00 x4
	 + 1.0000000000000000e+00 x5 + 1.0000000000000000e+00 x6 + 1.0000000000000000e+00 x7 + 1.0000000000000000e+00 x8 + 1.0000000000000000e+00 x9
	 + 1.0000000000000000e+00 x10 + 1.0000000000000000e+00 x11 + 1.0000000000000000e+00 x12 + 1.0000000000000000e+00 x13 + 1.0000000000000000e+00 x14
	 + 1.0000000000000000e+00 x15 + 1.0000000000000000e+00 x16 + 1.0000000000000000e+00 x17 + 1.0000000000000000e+00 x18 + 1.0000000000000000e+00 x19
	 + 1.0000000000000000e+00 x20 + 1.0000000000000000e+00 x21 + 1.0000000000000000e+00 x22 + 1.0000000000000000e+00 x23 + 1.0000000000000000e+00 x24
	 + 1.0000000000000000e+00 x25 + 1.0000000000000000e+00 x26 + 1.0000000000000000e+00 x27 + 1.0000000000000000e+00 x28 + 1.0000000000000000e+00 x29
	 + 1.0000000000000000e+00 x30 + 1.0000000000000000e+00 x31 + 1.0000000000000000e+00 x32 + 1.0000000000000000e+00 x33 + 1.0000000000000000e+00 x34
	 + 1.0000000000000000e+00 x35 + 1.0000000000000000e+00 x36 + 1.0000000000000000e+00 x37 + 1.0000000000000000e+00 x38 + 1.0000000000000000e+00 x39
	 + 1.0000000000000000e+00 x40 + 1.0000000000000000e+00 x41 + 1.0000000000000000e+00 x42 + 1.0000000000000000e+00 x43 + 1.0000000000000000e+00 x44
	 + 1.0000000000000000e+00 x45 + 1.0000000000000000e+00 x46 + 1.0000000000000000e+00 x47 + 1.0000000000000000e+00 x48 + 1.0000000000000000e+00 x49
	 + 1.0000000000000000e+00 x50 + 1.0000000000000000e+00 x51 + 1.0000000000000000e+00 x52 + 1.0000000000000000e+00 x53 + 1.0000000000000000e+00 x54
	 + 1.0000000000000000e+00 x55 + 1.0000000000000000e+00 x56 + 1.0000000000000000e+00 x57 + 1.0000000000000000e+00 x58 + 1.0000000000000000e+00 x59
	 + 1.0000000000000000e+00 x60 + 1.0000000000000000e+00 x61 + 1.0000000000000000e+00 x62 + 1.0000000000000000e+00 x63 + 1.0000000000000000e+00 x64
	 + 1.0000000000000000e+00 x65 + 1.0000000000000000e+00 x66 + 1.0000000000000000e+00 x67 + 1.0000000000000000e+00 x68 + 1.0000000000000000e+00 x69
	 + 1.0000000000000000e+00 x70 + 1.0000000000000000e+00 x71 + 1.0000000000000000e+00 x72 + 1.0000000000000000e+00 x73 + 1.0000000000000000e+00 x74
	 + 1.0000000000000000e+00 x75 + 1.0000000000000000e+00 x76 + 1.0000000000000000e+00 x77 + 1.0000000000000000e+00 x78 + 1.0000000000000000e+00 x79
	 + 1.0000000000000000e+00 x80 + 1.0000000000000000e+00 x81 + 1.0000000000000000e+00 x82 + 1.0000000000000000e+00 x83 + 1.0000000000000000e+00 x84
	 + 1.0000000000000000e+00 x85 + 1.0000000000000000e+00 x86 + 1.0000000000000000e+00 x87 + 1.0000000000000000e+00 x88 + 1.0000000000000000e+00 x89
	 + 1.0000000000000000e+00 x90 + 1.0000000000000000e+00 x91 + 1.0000000000000000e+00 x92 + 1.0000000000000000e+00 x93 + 1.0000000000000000e+00 x94
	 + 1.0000000000000000e+00 x95 + 1.0000000000000000e+00 x96 + 1.0000000000000000e+00 x97 + 1.0000000000000000e+00 x98 + 1.0000000000000000e+00 x99
	 + 1.0000000000000000e+00 x100 + 1.0000000000000000e+00 x101 + 1.0000000000000000e+00 x102 + 1.0000000000000000e+00 x103 + 1.0000000000000000e+00 x104
	 + 1.0000000000000000e+00 x105 + 1.0000000000000000e+00 x106 + 1.0000000000000000e+00 x107 + 1.0000000000000000e+00 x108 + 1.0000000000000000e+00 x109
	 + 1.0000000000000000e+00 x110 + 1.0000000000000000e+00 x111 + 1.0000000000000000e+00 x112 + 1.0000000000000000e+00 x113 + 1.0000000000000000e+00 x114
	 + 1.0000000000000000e+00 x115 + 1.0000000000000000e+00 x116 + 1.0000000000000000e+00 x117 + 1.0000000000000000e+00 x118 + 1.0000000000000000e+00 x119
	 + 1.0000000000000000e+00 x120 + 1.0000000000000000e+00 x121 + 1.0000000000000000e+00 x122 + 1.0000000000000000e+00 x123 + 1.0000000000000000e+00 x124
	 + 1.0000000000000000e+00 x125 + 1.0000000000000000e+00 x126 + 1.0000000000000000e+00 x127 + 1.0000000000000000e+00 x128 <= 4.0000000000000000e+00
 C10 : 1.0000000000000000e+00 x0 + 1.0000000000000000e+00 x1 + 1.0000000000000000e+00 x2 + 1.0000000000000000e+00 x3 + 1.0000000000000000e+00 x4
	 + 1.0000000000000000e+00 x5 + 1.0000000000000000e+00 x6 + 1.0000000000000000e+00 x7 + 1.0000000000000000e+00 x8 + 1.0000000000000000e+00 x9
	 + 1.0000000000000000e+00 x10 + 1.0000000000000000e+00 x11 + 1.0000000000000000e+00 x12 + 1.0000000000000000e+00 x13 + 1.0000000000000000e+00 x14
	 + 1.0000000000000000e+00 x15 + 1.0000000000000000e+00 x16 + 1.0000000000000000e+00 x17 + 1.0000000000000000e+00 x18 + 1.0000000000000000e+00 x19
	 + 1.0000000000000000e+00 x20 + 1.0000000000000000e+00 x21 + 1.0000000000000000e+00 x22 + 1.0000000000000000e+00 x23 + 1.0000000000000000e+00 x24
	 + 1.0000000000000000e+00 x25 + 1.0000000000000000e+00 x26 + 1.0000000000000000e+00 x27 + 1.0000000000000000e+00 x28 + 1.0000000000000000e+00 x29
	 + 1.0000000000000000e+00 x30 + 1.0000000000000000e+00 x31 + 1.0000000000000000e+00 x32 + 1.0000000000000000e+00 x33 + 1.0000000000000000e+00 x34
	 + 1.0000000000000000e+00 x35 + 1.0000000000000000e+00 x36 + 1.0000000000000000e+00 x37 + 1.0000000000000000e+00 x38 + 1.0000000000000000e+00 x39
	 + 1.0000000000000000e+00 x40 + 1.0000000000000000e+00 x41 + 1.0000000000000000e+00 x42 + 1.0000000000000000e+00 x43 + 1.0000000000000000e+00 x44
	 + 1.0000000000000000e+00 x45 + 1.0000000000000000e+00 x46 + 1.0000000000000000e+00 x47 + 1.0000000000000000e+00 x48 + 1.0000000000000000e+00 x49
	 + 1.0000000000000000e+00 x50 + 1.0000000000000000e+00 x51 + 1.0000000000000000e+00 x52 + 1.0000000000000000e+00 x53 + 1.0000000000000000e+00 x54
	 + 1.0000000000000000e+00 x55 + 1.0000000000000000e+00 x56 + 1.0000000000000000e+00 x57 + 1.0000000000000000e+00 x58 + 1.0000000000000000e+00 x59
	 + 1.0000000000000000e+00 x60 + 1.0000000000000000e+00 x61 + 1.0000000000000000e+00 x62 + 1.0000000000000000e+00 x63 + 1.0000000000000000e+00 x64
	 + 1.0000000000000000e+00 x65 + 1.0000000000000000e+00 x66 + 1.0000000000000000e+00 x67 + 1.0000000000000000e+00 x68 + 1.0000000000000000e+00 x69
	 + 1.0000000000000000e+00 x70 + 1.0000000000000000e+00 x71 + 1.0000000000000000e+00 x72 + 1.0000000000000000e+00 x73 + 1.0000000000000000e+00 x74
	 + 1.0000000000000000e+00 x75 + 1.0000000000000000e+00 x76 >= 5.0000000000000000e+00
Bounds
  x0 <= 1.0000000000000000e+00
  x1 <= 1.0000000000000000e+00
  x2 <= 1.0000000000000000e+00
  x3 <= 1.0000000000000000e+00
  x4 <= 1.0000000000000000e+00
  x5 <= 1.0000000000000000e+00
  x6 <= 1.0000000000000000e+00
  x7 <= 1.0000000000000000e+00
  x8 <= 1.0000000000000000e+00
  x9 <= 1.0000000000000000e+00
  x10 <= 1.0000000000000000e+00
  x11 <= 1.0000000000000000e+00
  x12 <= 1.0000000000000000e+00
  x13 <= 1.0000000000000000e+00
  x14 <= 1.0000000000000000e+00
  x15 <= 1.0000000000000000e+00
  x16 <= 1.0000000000000000e+00
  x17 <= 1.0000000000000000e+00
  x18 <= 1.0000000000000000e+00
  x19 <= 1.0000000000000000e+00
  x20 <= 1.0000000000000000e+00
  x21 <= 1.0000000000000000e+00
  x22 <= 1.0000000000000000e+00
  x23 <= 1.0000000000000000e+00
  x24 <= 1.0000000000000000e+00
  x25 <= 1.0000000000000000e+00
  x26 <= 1.0000000000000000e+00
  x27 <= 1.0000000000000000e+00
  x28 <= 1.0000000000000000e+00
  x29 <= 1.0000000000000000e+00
  x30 <= 1.0000000000000000e+00
  x31 <= 1.0000000000000000e+00
  x32 <= 1.0000000000000000e+00
  x33 <= 1.0000000000000000e+00
  x34 <= 1.0000000000000000e+00
  x35 <= 1.0000000000000000e+00
  x36 <= 1.0000000000000000e+00
  x37 <= 1.0000000000000000e+00
  x38 <= 1.0000000000000000e+00
  x39 <= 1.0000000000000000e+00
  x40 <= 1.0000000000000000e+00
  x41 <= 1.0000000000000000e+00
  x42 <= 1.0000000000000000e+00
  x43 <= 1.0000000000000000e+00
  x44 <= 1.0000000000000000e+00
  x45 <= 1.0000000000000000e+00
  x46 <= 1.0000000000000000e+00
  x47 <= 1.0000000000000000e+00
  x48 <= 1.0000000000000000e+00
  x49 <= 1.0000000000000000e+00
  x50 <= 1.0000000000000000e+00
  x51 <= 1.0000000000000000e+00
  x52 <= 1.0000000000000000e+00
  x53 <= 1.0000000000000000e+00
  x54 <= 1.0000000000000000e+00
  x55 <= 1.0000000000000000e+00
  x56 <= 1.0000000000000000e+00
  x57 <= 1.0000000000000000e+00
  x58 <= 1.0000000000000000e+00
  x59 <= 1.0000000000000000e+00
  x60 <= 1.0000000000000000e+00
  x61 <= 1.0000000000000000e+00
  x62 <= 1.0000000000000000e+00
  x63 <= 1.0000000000000000e+00
  x64 <= 1.0000000000000000e+00
  x65 <= 1.0000000000000000e+00
  x66 <= 1.0000000000000000e+00
  x67 <= 1.0000000000000000e+00
  x68 <= 1.0000000000000000e+00
  x69 <= 1.0000000000000000e+00
  x70 <= 1.0000000000000000e+00
  x71 <= 1.0000000000000000e+00
  x72 <= 1.0000000000000000e+00
  x73 <= 1.0000000000000000e+00
  x74 <= 1.0000000000000000e+00
  x75 <= 1.0000000000000000e+00
  x76 <= 1.0000000000000000e+00
  x77 <= 1.0000000000000000e+00
  x78 <= 1.0000000000000000e+00
  x79 <= 1.0000000000000000e+00
  x80 <= 1.0000000000000000e+00
  x81 <= 1.0000000000000000e+00
  x82 <= 1.0000000000000000e+00
  x83 <= 1.0000000000000000e+00
  x84 <= 1.0000000000000000e+00
  x85 <= 1.0000000000000000e+00
  x86 <= 1.0000000000000000e+00
  x87 <= 1.0000000000000000e+00
  x88 <= 1.0000000000000000e+00
  x89 <= 1.0000000000000000e+00
  x90 <= 1.0000000000000000e+00
  x91 <= 1.0000000000000000e+00
  x92 <= 1.0000000000000000e+00
  x93 <= 1.0000000000000000e+00
  x94 <= 1.0000000000000000e+00
  x95 <= 1.0000000000000000e+00
  x96 <= 1.0000000000000000e+00
  x97 <= 1.0000000000000000e+00
  x98 <= 1.0000000000000000e+00
  x99 <= 1.0000000000000000e+00
  x100 <= 1.0000000000000000e+00
  x101 <= 1.0000000000000000e+00
  x102 <= 1.0000000000000000e+00
  x103 <= 1.0000000000000000e+00
  x104 <= 1.0000000000000000e+00
  x105 <= 1.0000000000000000e+00
  x106 <= 1.0000000000000000e+00
  x107 <= 1.0000000000000000e+00
  x108 <= 1.0000000000000000e+00
  x109 <= 1.0000000000000000e+00
  x110 <= 1.0000000000000000e+00
  x111 <= 1.0000000000000000e+00
  x112 <= 1.0000000000000000e+00
  x113 <= 1.0000000000000000e+00
  x114 <= 1.0000000000000000e+00
  x115 <= 1.0000000000000000e+00
  x116 <= 1.0000000000000000e+00
  x117 <= 1.0000000000000000e+00
  x118 <= 1.0000000000000000e+00
  x119 <= 1.0000000000000000e+00
  x120 <= 1.0000000000000000e+00
  x121 <= 1.0000000000000000e+00
  x122 <= 1.0000000000000000e+00
  x123 <= 1.0000000000000000e+00
  x124 <= 1.0000000000000000e+00
  x125 <= 1.0000000000000000e+00
  x126 <= 1.0000000000000000e+00
  x127 <= 1.0000000000000000e+00
  x128 <= 1.0000000000000000e+00
End
