\ Model RMP
\ LP format - for model browsing. Use MPS format to capture full model detail.
Minimize
  1783 z_0 + 611 z_1 + 2379 z_2 + 999 z_3 + 650 z_4 + 1463 z_5 + 845 z_6
   + 2094 z_7 + 773 z_8 + 2689 z_9 + 8069 z_10 + 21304 z_11 + 40387 z_12
   + 67631 z_13 + 37451 z_14 + 101136 z_15 + 19085 z_16 + 34997 z_17
   + 4921 z_18 + 30707 z_19 + 10711 z_20 + 15795 z_21 + 55681 z_22
   + 99015 z_23 + 52602 z_24 + 82933 z_25 + 127479 z_26 + 82565 z_27
   + 32975 z_28 + 56327 z_29 + 120243 z_30 + 118310 z_31 + 55809 z_32
   + 20551 z_33 + 34268 z_34 + 95059 z_35 + 57978 z_36 + 92573 z_37
   + 54708 z_38 + 92492 z_39 + 36301 z_40 + 57795 z_41 + 83324 z_42
   + 59894 z_43 + 26657 z_44 + 15800 z_45 + 38647 z_46 + 15152 z_47
   + 31336 z_48 + 5526 z_49 + 36446 z_50 + 17662 z_51 + 7341 z_52
   + 18167 z_53 + 31641 z_54 + 16168 z_55 + 29429 z_56 + 30623 z_57
   + 19237 z_58 + 30363 z_59 + 21748 z_60 + 8637 z_61 + 34886 z_62
   + 21434 z_63 + 3870 z_64 + 17678 z_65 + 21777 z_66 + 25176 z_67
   + 17236 z_68 + 18079 z_69 + 10309 z_70 + 8649 z_71 + 6970 z_72
   + 16629 z_73 + 16413 z_74 + 2811 z_75 + 15229 z_76 + 8195 z_77
   + 8029 z_78 + 16720 z_79 + 15797 z_80 + 7318 z_81 + 5878 z_82
   + 3954 z_83 + 9601 z_84 + 3414 z_85 + 8637 z_86 + 5727 z_87 + 4979 z_88
   + 5457 z_89 + 4632 z_90 + 3571 z_91 + 3760 z_92 + 5456 z_93 + 2931 z_94
   + 6675 z_95 + 2478 z_96 + 6394 z_97 + 6609 z_98 + 2307 z_99 + 6232 z_100
   + 6806 z_101 + 10564 z_102 + 8258 z_103 + 6438 z_104 + 10196 z_105
   + 6618 z_106 + 6904 z_107 + 6527 z_108 + 6351 z_109 + 4591 z_110
   + 6618 z_111 + 6262 z_112 + 6728 z_113 + 6442 z_114 + 6248 z_115
   + 1478 z_116 + 3004 z_117 + 6161 z_118 + 4162 z_119 + 6339 z_120
   + 6627 z_121 + 6248 z_122 + 6072 z_123 + 6252 z_124 + 6540 z_125
   + 6161 z_126 + 5980 z_127 + 4134 z_128 + 2636 z_129 + 6072 z_130
   + 6360 z_131 + 5980 z_132 + 4231 z_133 + 4841 z_134 + 4242 z_135
   + 4162 z_136 + 3863 z_137 + 3794 z_138 + 1552 z_139 + 3077 z_140
   + 4235 z_141 + 4607 z_142 + 4162 z_143 + 4375 z_144 + 4008 z_145
   + 4607 z_146 + 6068 z_147 + 5999 z_148 + 4311 z_149 + 4242 z_150
   + 4455 z_151 + 2710 z_152 + 4315 z_153 + 3863 z_154 + 4077 z_155
   + 3937 z_156 + 3868 z_157 + 4081 z_158 + 4008 z_159 + 2850 z_160
   + 4455 z_161 + 4384 z_162 + 4315 z_165 + 4528 z_166 + 4171 z_167
   + 3937 z_171 + 4081 z_172 + 4315 z_174 + 3722 z_175 + 4221 z_176
Subject To
 visit_customer_0: z_0 + z_10 + z_11 + z_12 + z_13 + z_14 + z_15 + z_16
   + z_17 + z_18 + z_19 + z_20 + z_21 + z_22 + z_23 + z_24 + z_25 + z_26
   + z_27 + z_28 + z_29 + z_30 + z_31 + z_32 + z_33 + z_34 + z_35 + z_36
   + z_37 + z_38 + z_39 + z_40 + z_41 + z_42 + z_43 + z_44 + z_45 + z_46
   + z_47 + z_48 + z_49 + z_50 + z_51 + z_67 + z_68 + z_72 + z_73 + z_74
   + z_83 + z_84 + z_88 + z_98 + z_102 + z_103 + z_105 + z_110 + z_111
   + z_114 + z_115 + z_118 + z_120 + z_121 + z_122 + z_123 + z_124 + z_125
   + z_126 + z_128 + z_139 + z_140 + z_141 + z_152 + z_153 + z_156 + z_157
   + z_158 + z_160 + z_161 + z_162 + z_165 + z_166 + z_171 + z_172 + z_176
   = 1
 visit_customer_1: z_1 + z_10 + z_11 + z_12 + z_13 + z_14 + z_15 + z_16
   + z_17 + z_19 + z_22 + z_23 + z_24 + z_25 + z_26 + z_27 + z_29 + z_30
   + z_31 + z_34 + z_38 + z_39 + z_40 + z_42 + z_52 + z_53 + z_54 + z_55
   + z_56 + z_57 + z_58 + z_59 + z_62 + z_64 + z_66 + z_70 + z_71 + z_75
   + z_76 + z_77 + z_78 + z_79 + z_80 + z_97 + z_99 + z_101 + z_102 + z_117
   + z_119 + z_133 + z_140 + z_141 + z_142 + z_143 + z_144 = 1
 visit_customer_2: z_2 + z_11 + z_12 + z_13 + z_14 + z_15 + z_20 + z_22
   + z_23 + z_29 + z_33 + z_34 + z_38 + z_39 + z_41 + z_42 + z_43 + z_44
   + z_50 + z_53 + z_54 + z_60 + z_63 + z_64 + z_66 + z_67 + z_70 + z_71
   + z_76 + z_81 + z_82 + z_85 + z_86 + z_95 + z_101 + z_102 + z_103
   + z_104 + z_105 + z_106 + z_107 + z_108 + z_109 + z_111 + z_115 + z_118
   + z_119 + z_127 + z_129 + z_134 + z_135 + z_136 + z_137 + z_138 + z_141
   + z_145 + z_147 + z_148 + z_152 + z_153 + z_156 + z_157 + z_158 + z_167
   + z_174 + z_175 = 1
 visit_customer_3: z_3 + z_14 + z_15 + z_17 + z_18 + z_19 + z_20 + z_21
   + z_22 + z_23 + z_24 + z_25 + z_26 + z_27 + z_28 + z_29 + z_30 + z_31
   + z_32 + z_33 + z_34 + z_35 + z_36 + z_37 + z_38 + z_39 + z_41 + z_42
   + z_43 + z_44 + z_45 + z_46 + z_47 + z_48 + z_50 + z_54 + z_56 + z_60
   + z_65 + z_67 + z_71 + z_76 + z_82 + z_83 + z_84 + z_85 + z_86 + z_104
   + z_105 + z_112 + z_115 + z_120 + z_121 + z_122 + z_123 + z_127 + z_130
   + z_131 + z_132 + z_134 + z_135 + z_142 + z_146 + z_147 + z_148 + z_149
   + z_150 + z_151 + z_153 + z_161 + z_162 + z_165 + z_166 + z_167 + z_174
   = 1
 visit_customer_4: z_4 + z_30 + z_32 + z_35 + z_39 + z_41 + z_45 + z_46
   + z_49 + z_51 + z_67 + z_68 + z_69 + z_79 + z_84 + z_87 + z_89 + z_90
   + z_94 + z_100 + z_106 + z_120 + z_124 + z_130 + z_136 + z_146 = 1
 visit_customer_5: z_5 + z_13 + z_15 + z_26 + z_28 + z_31 + z_32 + z_35
   + z_36 + z_37 + z_41 + z_43 + z_50 + z_51 + z_61 + z_62 + z_63 + z_65
   + z_66 + z_69 + z_80 + z_87 + z_88 + z_90 + z_95 + z_96 + z_98 + z_100
   + z_107 + z_113 + z_121 + z_125 + z_131 + z_133 + z_137 + z_147 + z_149
   + z_154 + z_155 + z_156 + z_162 + z_167 + z_171 + z_175 = 1
 visit_customer_6: z_6 + z_23 + z_25 + z_26 + z_35 + z_36 + z_37 + z_40
   + z_42 + z_43 + z_44 + z_46 + z_48 + z_57 + z_68 + z_73 + z_77 + z_89
   + z_91 + z_92 + z_97 + z_99 + z_108 + z_122 + z_126 + z_132 + z_138
   + z_143 + z_148 + z_150 + z_154 + z_157 + z_159 + z_165 + z_171 + z_172
   + z_175 = 1
 visit_customer_7: z_7 + z_16 + z_17 + z_24 + z_25 + z_26 + z_27 + z_29
   + z_30 + z_31 + z_37 + z_38 + z_39 + z_40 + z_42 + z_47 + z_48 + z_55
   + z_56 + z_57 + z_59 + z_72 + z_73 + z_74 + z_75 + z_76 + z_77 + z_78
   + z_79 + z_80 + z_92 + z_97 + z_109 + z_112 + z_113 + z_114 + z_118
   + z_123 + z_124 + z_125 + z_126 + z_127 + z_128 + z_130 + z_131 + z_132
   + z_144 + z_145 + z_151 + z_155 + z_158 + z_159 + z_166 + z_172 + z_174
   + z_176 = 1
 visit_customer_8: z_8 + z_27 + z_30 + z_31 + z_58 + z_59 + z_62 + z_74
   + z_78 + z_79 + z_80 + z_93 + z_94 + z_96 + z_98 + z_100 = 1
 visit_customer_9: z_9 + z_12 + z_13 + z_15 + z_19 + z_21 + z_22 + z_23
   + z_24 + z_25 + z_26 + z_27 + z_28 + z_30 + z_31 + z_32 + z_33 + z_34
   + z_35 + z_36 + z_37 + z_38 + z_41 + z_42 + z_43 + z_50 + z_52 + z_53
   + z_54 + z_55 + z_56 + z_57 + z_58 + z_59 + z_60 + z_61 + z_62 + z_63
   + z_65 + z_66 + z_69 + z_70 + z_81 + z_86 + z_91 + z_93 + z_101 + z_102
   + z_103 + z_104 + z_105 + z_106 + z_107 + z_108 + z_109 + z_110 + z_111
   + z_112 + z_113 + z_114 + z_116 + z_117 + z_119 + z_129 + z_133 + z_134
   + z_135 + z_136 + z_137 + z_138 + z_142 + z_143 + z_144 + z_145 + z_146
   + z_147 + z_148 + z_149 + z_150 + z_151 + z_154 + z_155 + z_159 + z_160
   + z_161 + z_176 = 1
 truck_fleet_ub: z_0 + z_1 + z_2 + z_3 + z_4 + z_5 + z_6 + z_7 + z_8 + z_9
   + z_10 + z_11 + z_12 + z_13 + z_14 + z_15 + z_16 + z_17 + z_18 + z_19
   + z_20 + z_21 + z_22 + z_23 + z_24 + z_25 + z_26 + z_27 + z_28 + z_29
   + z_30 + z_31 + z_32 + z_33 + z_34 + z_35 + z_36 + z_37 + z_38 + z_39
   + z_40 + z_41 + z_42 + z_43 + z_44 + z_45 + z_46 + z_47 + z_48 + z_49
   + z_50 + z_51 + z_52 + z_53 + z_54 + z_55 + z_56 + z_57 + z_58 + z_59
   + z_60 + z_61 + z_62 + z_63 + z_64 + z_65 + z_66 + z_67 + z_68 + z_69
   + z_70 + z_71 + z_72 + z_73 + z_74 + z_75 + z_76 + z_77 + z_78 + z_79
   + z_80 + z_81 + z_82 + z_83 + z_84 + z_85 + z_86 + z_87 + z_88 + z_89
   + z_90 + z_91 + z_92 + z_93 + z_94 + z_95 + z_96 + z_97 + z_98 + z_99
   + z_100 + z_101 + z_102 + z_103 + z_104 + z_105 + z_106 + z_107 + z_108
   + z_109 + z_110 + z_111 + z_112 + z_113 + z_114 + z_115 + z_116 + z_117
   + z_118 + z_119 + z_120 + z_121 + z_122 + z_123 + z_124 + z_125 + z_126
   + z_127 + z_128 + z_129 + z_130 + z_131 + z_132 + z_133 + z_134 + z_135
   + z_136 + z_137 + z_138 + z_139 + z_140 + z_141 + z_142 + z_143 + z_144
   + z_145 + z_146 + z_147 + z_148 + z_149 + z_150 + z_151 + z_152 + z_153
   + z_154 + z_155 + z_156 + z_157 + z_158 + z_159 + z_160 + z_161 + z_162
   + z_165 + z_166 + z_167 + z_171 + z_172 + z_174 + z_175 + z_176 <= 5
 truck_fleet_lb: z_0 + z_1 + z_2 + z_3 + z_4 + z_5 + z_6 + z_7 + z_8 + z_9
   + z_10 + z_11 + z_12 + z_13 + z_14 + z_15 + z_16 + z_17 + z_18 + z_19
   + z_20 + z_21 + z_22 + z_23 + z_24 + z_25 + z_26 + z_27 + z_28 + z_29
   + z_30 + z_31 + z_32 + z_33 + z_34 + z_35 + z_36 + z_37 + z_38 + z_39
   + z_40 + z_41 + z_42 + z_43 + z_44 + z_45 + z_46 + z_47 + z_48 + z_49
   + z_50 + z_51 + z_52 + z_53 + z_54 + z_55 + z_56 + z_57 + z_58 + z_59
   + z_60 + z_61 + z_62 + z_63 + z_64 + z_65 + z_66 + z_67 + z_68 + z_69
   + z_70 + z_71 + z_72 + z_73 + z_74 + z_75 + z_76 + z_77 + z_78 + z_79
   + z_80 + z_81 + z_82 + z_83 + z_84 + z_85 + z_86 + z_87 + z_88 + z_89
   + z_90 + z_91 + z_92 + z_93 + z_94 + z_95 + z_96 + z_97 + z_98 + z_99
   + z_100 + z_101 + z_102 + z_103 + z_104 + z_105 + z_106 + z_107 + z_108
   + z_109 + z_110 + z_111 + z_112 + z_113 + z_114 + z_115 + z_116 + z_117
   + z_118 + z_119 + z_120 + z_121 + z_122 + z_123 + z_124 + z_125 + z_126
   + z_127 + z_128 + z_129 + z_130 + z_131 + z_132 + z_133 + z_134 + z_135
   + z_136 + z_137 + z_138 + z_139 + z_140 + z_141 + z_142 + z_143 + z_144
   + z_145 + z_146 + z_147 + z_148 + z_149 + z_150 + z_151 + z_152 + z_153
   + z_154 + z_155 + z_156 + z_157 + z_158 + z_159 + z_160 + z_161 + z_162
   + z_165 + z_166 + z_167 + z_171 + z_172 + z_174 + z_175 + z_176 >= 0
 SR_('C1',_'C2',_'C3'): z_10 + z_11 + z_12 + z_13 + z_14 + z_15 + z_16
   + z_17 + z_19 + z_20 + z_22 + z_23 + z_24 + z_25 + z_26 + z_27 + z_29
   + z_30 + z_31 + z_33 + z_34 + z_38 + z_39 + z_40 + z_41 + z_42 + z_43
   + z_44 + z_50 + z_53 + z_54 + z_64 + z_66 + z_67 + z_70 + z_71 + z_76
   + z_101 + z_102 + z_103 + z_105 + z_111 + z_115 + z_118 + z_119 + z_140
   + z_141 + z_152 + z_153 + z_156 + z_157 + z_158 <= 1
 SR_('C1',_'C2',_'C4'): z_10 + z_11 + z_12 + z_13 + z_14 + z_15 + z_16
   + z_17 + z_18 + z_19 + z_20 + z_21 + z_22 + z_23 + z_24 + z_25 + z_26
   + z_27 + z_28 + z_29 + z_30 + z_31 + z_32 + z_33 + z_34 + z_35 + z_36
   + z_37 + z_38 + z_39 + z_40 + z_41 + z_42 + z_43 + z_44 + z_45 + z_46
   + z_47 + z_48 + z_50 + z_54 + z_56 + z_67 + z_71 + z_76 + z_83 + z_84
   + z_102 + z_105 + z_115 + z_120 + z_121 + z_122 + z_123 + z_140 + z_141
   + z_142 + z_153 + z_161 + z_162 + z_165 + z_166 <= 1
 SR_('C1',_'C2',_'C5'): z_10 + z_11 + z_12 + z_13 + z_14 + z_15 + z_16
   + z_17 + z_19 + z_22 + z_23 + z_24 + z_25 + z_26 + z_27 + z_29 + z_30
   + z_31 + z_32 + z_34 + z_35 + z_38 + z_39 + z_40 + z_41 + z_42 + z_45
   + z_46 + z_49 + z_51 + z_67 + z_68 + z_79 + z_84 + z_102 + z_120 + z_124
   + z_140 + z_141 <= 1
 SR_('C1',_'C2',_'C6'): z_10 + z_11 + z_12 + z_13 + z_14 + z_15 + z_16
   + z_17 + z_19 + z_22 + z_23 + z_24 + z_25 + z_26 + z_27 + z_28 + z_29
   + z_30 + z_31 + z_32 + z_34 + z_35 + z_36 + z_37 + z_38 + z_39 + z_40
   + z_41 + z_42 + z_43 + z_50 + z_51 + z_62 + z_66 + z_80 + z_88 + z_98
   + z_102 + z_121 + z_125 + z_133 + z_140 + z_141 + z_156 + z_162 + z_171
   <= 1
 SR_('C1',_'C2',_'C10'): z_10 + z_11 + z_12 + z_13 + z_14 + z_15 + z_16
   + z_17 + z_19 + z_21 + z_22 + z_23 + z_24 + z_25 + z_26 + z_27 + z_28
   + z_29 + z_30 + z_31 + z_32 + z_33 + z_34 + z_35 + z_36 + z_37 + z_38
   + z_39 + z_40 + z_41 + z_42 + z_43 + z_50 + z_52 + z_53 + z_54 + z_55
   + z_56 + z_57 + z_58 + z_59 + z_62 + z_66 + z_70 + z_101 + z_102 + z_103
   + z_105 + z_110 + z_111 + z_114 + z_117 + z_119 + z_133 + z_140 + z_141
   + z_142 + z_143 + z_144 + z_160 + z_161 + z_176 <= 1
Bounds
End
