\ Model RMP
\ LP format - for model browsing. Use MPS format to capture full model detail.
Minimize
  1683 z_0 + 511 z_1 + 2279 z_2 + 899 z_3 + 550 z_4 + 1363 z_5 + 745 z_6
   + 1994 z_7 + 673 z_8 + 2589 z_9 + 7969 z_10 + 7241 z_11 + 21204 z_12
   + 40287 z_13 + 22384 z_14 + 4821 z_15 + 32875 z_16 + 3770 z_17
   + 21677 z_18 + 27977 z_19 + 5778 z_20 + 10611 z_21 + 35260 z_22
   + 57878 z_23 + 26557 z_24 + 16068 z_25 + 37318 z_26 + 40904 z_27
   + 36346 z_28 + 59794 z_29 + 15700 z_30 + 15052 z_31 + 5426 z_32
   + 25076 z_33 + 53673 z_34 + 31236 z_35 + 30962 z_36 + 15679 z_37
   + 31346 z_38 + 17562 z_39 + 20451 z_40 + 17136 z_41 + 10185 z_42
   + 8537 z_43 + 17578 z_44 + 8549 z_45 + 17979 z_46 + 6870 z_47
   + 16529 z_48 + 16313 z_49 + 10209 z_50 + 2711 z_51 + 15129 z_52
   + 8095 z_53 + 7218 z_54 + 16646 z_55 + 9501 z_56 + 7929 z_57 + 3314 z_58
   + 8537 z_59 + 5627 z_60 + 4879 z_61 + 5357 z_62 + 4532 z_63 + 3471 z_64
   + 3660 z_65 + 5356 z_66 + 2831 z_67 + 6509 z_68 + 6132 z_69 + 4396 z_70
   + 2207 z_71 + 6700 z_72 + 3854 z_73 + 10458 z_74 + 8154 z_75 + 6332 z_76
   + 2378 z_77 + 10090 z_78 + 6512 z_79 + 6798 z_80 + 6421 z_81 + 6245 z_82
   + 4295 z_83 + 6709 z_84 + 6798 z_85 + 6156 z_86 + 6622 z_87 + 6512 z_88
   + 6336 z_89 + 6245 z_90 + 6512 z_91 + 6336 z_92 + 6055 z_93 + 5874 z_94
   + 6332 z_96 + 6423 z_97 + 6233 z_98 + 6142 z_99 + 5966 z_100
   + 6146 z_101 + 6055 z_102 + 4030 z_103 + 5874 z_124 + 2746 z_120
   + 4269 z_138 + 3902 z_139 + 6202 z_154 + 3971 z_141 + 6271 z_155
   + 4115 z_142 + 3255 z_156 + 2840 z_157 + 4361 z_158 + 4065 z_150
   + 3996 z_159 + 4209 z_151 + 4191 z_160 + 4284 z_161 + 3985 z_162
   + 3616 z_152 + 4349 z_153 + 5728 z_163
Subject To
 visit_customer_0: z_0 + z_10 + z_12 + z_13 + z_14 + z_15 + z_16 + z_21
   + z_23 + z_24 + z_27 + z_28 + z_29 + z_30 + z_31 + z_32 + z_33 + z_34
   + z_35 + z_36 + z_37 + z_38 + z_39 + z_40 + z_41 + z_47 + z_48 + z_49
   + z_56 + z_61 + z_68 + z_73 + z_74 + z_75 + z_78 + z_91 + z_92 + z_93
   + z_97 + z_98 + z_99 + z_100 + z_101 + z_102 + z_103 + z_120 + z_138
   + z_139 + z_154 + z_141 + z_155 + z_142 + z_160 + z_153 = 1
 visit_customer_1: z_1 + z_10 + z_11 + z_12 + z_13 + z_14 + z_17 + z_18
   + z_19 + z_25 + z_26 + z_27 + z_45 + z_50 + z_51 + z_52 + z_53 + z_57
   + z_71 + z_72 + z_74 + z_138 = 1
 visit_customer_2: z_2 + z_12 + z_13 + z_17 + z_18 + z_19 + z_20 + z_21
   + z_22 + z_24 + z_26 + z_28 + z_29 + z_33 + z_34 + z_40 + z_45 + z_50
   + z_52 + z_54 + z_55 + z_58 + z_59 + z_70 + z_72 + z_74 + z_75 + z_76
   + z_78 + z_79 + z_80 + z_81 + z_82 + z_91 + z_93 + z_94 + z_139 + z_154
   + z_156 + z_157 + z_158 + z_150 + z_159 + z_151 + z_161 + z_162 + z_152
   + z_163 = 1
 visit_customer_3: z_3 + z_15 + z_16 + z_20 + z_21 + z_22 + z_23 + z_24
   + z_26 + z_28 + z_29 + z_30 + z_31 + z_33 + z_34 + z_35 + z_36 + z_37
   + z_38 + z_40 + z_42 + z_44 + z_45 + z_52 + z_56 + z_58 + z_59 + z_73
   + z_76 + z_78 + z_83 + z_84 + z_86 + z_94 + z_96 + z_97 + z_98 + z_99
   + z_100 + z_124 + z_154 + z_155 + z_156 + z_157 + z_158 + z_150 + z_159
   + z_151 + z_161 + z_153 + z_163 = 1
 visit_customer_4: z_4 + z_30 + z_32 + z_33 + z_34 + z_38 + z_39 + z_41
   + z_46 + z_56 + z_60 + z_62 + z_63 + z_67 + z_69 + z_79 + z_88 + z_89
   + z_98 + z_101 + z_158 + z_162 = 1
 visit_customer_5: z_5 + z_16 + z_18 + z_22 + z_23 + z_26 + z_27 + z_28
   + z_29 + z_34 + z_39 + z_43 + z_44 + z_46 + z_55 + z_60 + z_61 + z_63
   + z_68 + z_69 + z_77 + z_80 + z_83 + z_84 + z_85 + z_87 + z_141 + z_155
   + z_150 + z_162 + z_152 + z_163 = 1
 visit_customer_6: z_6 + z_23 + z_24 + z_29 + z_35 + z_41 + z_48 + z_53
   + z_62 + z_64 + z_65 + z_71 + z_81 + z_85 + z_88 + z_90 + z_96 + z_99
   + z_102 + z_124 + z_159 + z_152 + z_163 = 1
 visit_customer_7: z_7 + z_19 + z_25 + z_31 + z_35 + z_36 + z_47 + z_48
   + z_49 + z_51 + z_52 + z_53 + z_57 + z_65 + z_82 + z_86 + z_87 + z_89
   + z_90 + z_92 + z_93 + z_94 + z_100 + z_101 + z_102 + z_103 + z_124
   + z_142 + z_151 = 1
 visit_customer_8: z_8 + z_14 + z_27 + z_36 + z_37 + z_38 + z_49 + z_57
   + z_66 + z_67 + z_68 + z_69 + z_77 + z_160 + z_161 = 1
 visit_customer_9: z_9 + z_11 + z_13 + z_16 + z_18 + z_19 + z_22 + z_23
   + z_25 + z_26 + z_28 + z_29 + z_40 + z_42 + z_43 + z_44 + z_46 + z_50
   + z_54 + z_55 + z_59 + z_64 + z_66 + z_70 + z_72 + z_74 + z_75 + z_76
   + z_78 + z_79 + z_80 + z_81 + z_82 + z_84 + z_85 + z_86 + z_87 + z_88
   + z_89 + z_90 + z_91 + z_92 + z_96 + z_97 + z_120 + z_138 + z_139
   + z_154 + z_141 + z_155 + z_142 + z_160 + z_153 = 1
 truck_fleet_ub: z_0 + z_1 + z_2 + z_3 + z_4 + z_5 + z_6 + z_7 + z_8 + z_9
   + z_10 + z_11 + z_12 + z_13 + z_14 + z_15 + z_16 + z_17 + z_18 + z_19
   + z_20 + z_21 + z_22 + z_23 + z_24 + z_25 + z_26 + z_27 + z_28 + z_29
   + z_30 + z_31 + z_32 + z_33 + z_34 + z_35 + z_36 + z_37 + z_38 + z_39
   + z_40 + z_41 + z_42 + z_43 + z_44 + z_45 + z_46 + z_47 + z_48 + z_49
   + z_50 + z_51 + z_52 + z_53 + z_54 + z_55 + z_56 + z_57 + z_58 + z_59
   + z_60 + z_61 + z_62 + z_63 + z_64 + z_65 + z_66 + z_67 + z_68 + z_69
   + z_70 + z_71 + z_72 + z_73 + z_74 + z_75 + z_76 + z_77 + z_78 + z_79
   + z_80 + z_81 + z_82 + z_83 + z_84 + z_85 + z_86 + z_87 + z_88 + z_89
   + z_90 + z_91 + z_92 + z_93 + z_94 + z_96 + z_97 + z_98 + z_99 + z_100
   + z_101 + z_102 + z_103 + z_124 + z_120 + z_138 + z_139 + z_154 + z_141
   + z_155 + z_142 + z_156 + z_157 + z_158 + z_150 + z_159 + z_151 + z_160
   + z_161 + z_162 + z_152 + z_153 + z_163 <= 5
 truck_fleet_lb: z_0 + z_1 + z_2 + z_3 + z_4 + z_5 + z_6 + z_7 + z_8 + z_9
   + z_10 + z_11 + z_12 + z_13 + z_14 + z_15 + z_16 + z_17 + z_18 + z_19
   + z_20 + z_21 + z_22 + z_23 + z_24 + z_25 + z_26 + z_27 + z_28 + z_29
   + z_30 + z_31 + z_32 + z_33 + z_34 + z_35 + z_36 + z_37 + z_38 + z_39
   + z_40 + z_41 + z_42 + z_43 + z_44 + z_45 + z_46 + z_47 + z_48 + z_49
   + z_50 + z_51 + z_52 + z_53 + z_54 + z_55 + z_56 + z_57 + z_58 + z_59
   + z_60 + z_61 + z_62 + z_63 + z_64 + z_65 + z_66 + z_67 + z_68 + z_69
   + z_70 + z_71 + z_72 + z_73 + z_74 + z_75 + z_76 + z_77 + z_78 + z_79
   + z_80 + z_81 + z_82 + z_83 + z_84 + z_85 + z_86 + z_87 + z_88 + z_89
   + z_90 + z_91 + z_92 + z_93 + z_94 + z_96 + z_97 + z_98 + z_99 + z_100
   + z_101 + z_102 + z_103 + z_124 + z_120 + z_138 + z_139 + z_154 + z_141
   + z_155 + z_142 + z_156 + z_157 + z_158 + z_150 + z_159 + z_151 + z_160
   + z_161 + z_162 + z_152 + z_153 + z_163 >= 0
Bounds
End
