\ Model RMP
\ LP format - for model browsing. Use MPS format to capture full model detail.
Minimize
  1671 z_0 + 505 z_1 + 2270 z_2 + 893 z_3 + 545 z_4 + 1351 z_5 + 746 z_6
   + 2003 z_7 + 686 z_8 + 2563 z_9 + 1754 z_10 + 1106 z_11 + 1368 z_12
   + 1931 z_13 + 2467 z_14 + 5682 z_15 + 23661 z_16 + 4811 z_17
   + 16298 z_18 + 11745 z_19 + 13843 z_20 + 16114 z_21 + 56762 z_22
   + 8082 z_23 + 22292 z_24 + 8100 z_25 + 48883 z_26 + 6316 z_27
   + 37756 z_28 + 21122 z_29 + 6591 z_30 + 93584 z_31 + 18019 z_32
   + 83531 z_33 + 20655 z_34 + 6297 z_35 + 21920 z_36 + 70555 z_37
   + 39746 z_38 + 61011 z_39 + 21998 z_40 + 9646 z_41 + 25310 z_42
   + 53219 z_43 + 9690 z_44 + 18391 z_45 + 36806 z_46 + 37390 z_47
   + 64390 z_48 + 34309 z_49 + 52033 z_50 + 53098 z_51 + 24802 z_52
   + 8445 z_53 + 23841 z_54 + 19919 z_55 + 5303 z_56 + 27357 z_57
   + 35061 z_58 + 12208 z_59 + 28359 z_60 + 27441 z_61 + 23519 z_62
   + 38661 z_63 + 10193 z_64 + 39746 z_65 + 15497 z_66 + 28290 z_67
   + 16000 z_68 + 31686 z_69 + 18996 z_70 + 34166 z_71 + 8371 z_72
   + 18614 z_73 + 28990 z_74 + 17964 z_75 + 27983 z_76 + 4375 z_77
   + 17488 z_78 + 23357 z_79 + 34617 z_80 + 19005 z_81 + 19002 z_82
   + 18022 z_83 + 10346 z_84 + 11259 z_85 + 7215 z_86 + 15350 z_87
   + 13969 z_88 + 25443 z_89 + 16071 z_90 + 4582 z_91 + 10823 z_92
   + 14342 z_93 + 13480 z_94 + 22888 z_95 + 3294 z_96 + 11006 z_97
   + 7790 z_98 + 8246 z_99 + 10641 z_100 + 10638 z_101 + 9898 z_102
   + 7095 z_103 + 10361 z_104 + 10063 z_105 + 9356 z_106 + 7542 z_107
   + 7833 z_108 + 5674 z_109 + 10705 z_110 + 6477 z_111 + 6846 z_112
   + 2457 z_113 + 2372 z_114 + 5783 z_115 + 1456 z_116 + 3883 z_117
   + 7604 z_118 + 7624 z_119 + 4300 z_120 + 3511 z_121 + 4725 z_122
   + 3244 z_123 + 7357 z_124 + 6601 z_125 + 3938 z_126 + 5277 z_127
   + 3965 z_128 + 2970 z_129 + 2002 z_130 + 5619 z_131 + 4911 z_132
   + 9995 z_133 + 3041 z_134 + 3471 z_135 + 3884 z_136 + 3240 z_137
   + 2912 z_138 + 2573 z_139 + 5114 z_140 + 5495 z_141 + 5342 z_142
   + 6393 z_143 + 2360 z_144 + 2534 z_145 + 830 z_146 + 774 z_151
   + 1794 z_154 + 1739 z_157 + 2700 z_160 + 2755 z_162 + 1010 z_171
   + 1851 z_172 + 1635 z_173 + 1677 z_177 + 948 z_178 + 3600 z_188
   + 2364 z_189 + 3264 z_192 + 3264 z_194 + 3539 z_221 + 3716 z_231
   + 3655 z_232 + 3655 z_233 + 3535 z_236 + 1729 z_242 + 3484 z_244
   + 3423 z_246 + 3325 z_247 + 3148 z_248 + 3205 z_249 + 3148 z_250
   + 3086 z_251 + 3205 z_257 + 3143 z_258 + 3541 z_261 + 3423 z_264
   + 3319 z_267 + 3376 z_273 + 3138 z_287 + 3195 z_294 + 41 z_295
   + 3592 z_341 + 3471 z_366 + 3476 z_421
Subject To
 visit_customer_0: z_0 + z_15 + z_16 + z_18 + z_19 + z_21 + z_22 + z_28
   + z_31 + z_40 + z_41 + z_42 + z_43 + z_46 + z_47 + z_48 + z_49 + z_50
   + z_51 + z_52 + z_53 + z_54 + z_55 + z_56 + z_57 + z_58 + z_59 + z_60
   + z_61 + z_62 + z_63 + z_64 + z_75 + z_76 + z_77 + z_78 + z_84 + z_92
   + z_100 + z_101 + z_102 + z_115 + z_117 + z_118 + z_124 + z_131 + z_138
   + z_143 + z_242 + z_287 + z_294 + z_341 + z_366 + z_421 = 1
 visit_customer_1: z_1 + z_22 + z_28 + z_33 + z_40 + z_45 + z_47 + z_48
   + z_49 + z_50 + z_51 + z_56 + z_59 + z_60 + z_61 + z_62 + z_63 + z_64
   + z_74 + z_75 + z_76 + z_79 + z_80 + z_93 + z_99 + z_109 + z_110 + z_113
   + z_114 + z_116 + z_117 + z_118 + z_119 + z_120 + z_121 + z_122 + z_123
   + z_124 + z_125 + z_136 + z_172 = 1
 visit_customer_2: z_2 + z_19 + z_26 + z_28 + z_31 + z_33 + z_40 + z_44
   + z_45 + z_47 + z_48 + z_49 + z_50 + z_51 + z_52 + z_57 + z_60 + z_68
   + z_69 + z_74 + z_82 + z_96 + z_98 + z_99 + z_101 + z_107 + z_108
   + z_127 + z_137 + z_142 + z_173 + z_189 + z_192 + z_194 + z_247 + z_248
   + z_249 + z_250 + z_251 + z_257 + z_258 + z_267 + z_273 + z_287 + z_294
   = 1
 visit_customer_3: z_3 + z_34 + z_37 + z_65 + z_78 + z_115 + z_126 + z_127
   + z_128 + z_221 + z_231 + z_232 + z_233 + z_247 = 1
 visit_customer_4: z_4 + z_21 + z_31 + z_52 + z_55 + z_58 + z_62 + z_63
   + z_66 + z_67 + z_69 + z_76 + z_89 + z_91 + z_97 + z_104 + z_105 + z_106
   + z_119 + z_129 + z_130 + z_131 + z_132 + z_133 + z_139 = 1
 visit_customer_5: z_5 + z_36 + z_38 + z_72 + z_73 + z_77 + z_78 + z_81
   + z_82 + z_83 + z_84 + z_92 + z_100 + z_101 + z_102 + z_104 + z_107
   + z_118 + z_139 + z_140 + z_141 + z_142 + z_143 + z_221 + z_244 + z_246
   + z_248 + z_250 + z_251 + z_264 + z_267 + z_287 + z_421 = 1
 visit_customer_6: z_6 + z_65 + z_71 + z_83 + z_102 + z_108 + z_111 + z_128
   + z_134 + z_135 + z_137 = 1
 visit_customer_7: z_7 + z_49 + z_50 + z_51 + z_64 + z_74 + z_75 + z_76
   + z_79 + z_80 + z_86 + z_87 + z_88 + z_89 + z_90 + z_94 + z_95 + z_105
   + z_110 + z_112 + z_116 + z_117 + z_118 + z_119 + z_120 + z_121 + z_122
   + z_123 + z_124 + z_125 + z_136 + z_236 + z_249 + z_257 + z_258 + z_261
   + z_273 + z_294 + z_366 = 1
 visit_customer_8: z_8 + z_58 + z_63 + z_80 + z_94 + z_95 + z_106 + z_123
   + z_124 + z_125 + z_130 + z_131 + z_132 + z_133 + z_138 + z_143 + z_144
   + z_145 = 1
 visit_customer_9: z_9 + z_16 + z_23 + z_24 + z_25 + z_26 + z_28 + z_29
   + z_31 + z_33 + z_34 + z_36 + z_37 + z_38 + z_65 + z_66 + z_67 + z_68
   + z_69 + z_70 + z_71 + z_72 + z_73 + z_79 + z_80 + z_81 + z_82 + z_83
   + z_85 + z_86 + z_87 + z_88 + z_89 + z_90 + z_93 + z_94 + z_95 + z_103
   + z_125 + z_132 + z_133 + z_134 + z_144 + z_146 + z_154 + z_162 + z_221
   + z_231 + z_232 + z_233 + z_236 = 1
 visit_customer_10: z_10 + z_17 + z_20 + z_22 + z_23 + z_24 + z_26 + z_33
   + z_34 + z_37 + z_39 + z_44 + z_45 + z_65 + z_66 + z_67 + z_74 + z_75
   + z_76 + z_91 + z_97 + z_104 + z_105 + z_106 + z_119 + z_136 + z_242
   + z_287 + z_294 + z_341 + z_366 + z_421 = 1
 visit_customer_11: z_11 + z_15 + z_17 + z_18 + z_19 + z_20 + z_21 + z_22
   + z_25 + z_27 + z_29 + z_32 + z_35 + z_39 + z_40 + z_44 + z_45 + z_46
   + z_47 + z_48 + z_49 + z_50 + z_51 + z_52 + z_68 + z_69 + z_74 + z_78
   + z_96 + z_99 + z_107 + z_108 + z_151 + z_157 + z_160 + z_177 + z_188
   + z_189 + z_192 + z_194 + z_244 + z_246 + z_247 + z_248 + z_249 + z_250
   + z_251 + z_257 + z_258 + z_261 + z_264 = 1
 visit_customer_12: z_12 + z_16 + z_24 + z_26 + z_27 + z_29 + z_30 + z_31
   + z_32 + z_33 + z_37 + z_38 + z_39 + z_41 + z_42 + z_43 + z_46 + z_47
   + z_50 + z_57 + z_59 + z_60 + z_67 + z_73 + z_84 + z_87 + z_97 + z_98
   + z_113 + z_120 + z_129 + z_140 + z_154 + z_157 + z_160 + z_162 + z_188
   + z_189 + z_192 + z_231 + z_233 + z_236 + z_244 + z_246 + z_247 + z_248
   + z_249 + z_261 = 1
 visit_customer_13: z_13 + z_30 + z_32 + z_36 + z_37 + z_38 + z_39 + z_42
   + z_43 + z_48 + z_53 + z_54 + z_55 + z_58 + z_61 + z_62 + z_63 + z_70
   + z_71 + z_79 + z_80 + z_88 + z_89 + z_92 + z_93 + z_103 + z_109 + z_110
   + z_114 + z_121 + z_133 + z_135 + z_141 + z_160 + z_162 + z_171 + z_172
   + z_173 + z_188 + z_194 + z_221 + z_231 + z_232 + z_244 + z_250 + z_257
   + z_261 + z_264 + z_267 + z_273 + z_341 + z_421 = 1
 visit_customer_14: z_14 + z_18 + z_20 + z_22 + z_35 + z_39 + z_43 + z_46
   + z_48 + z_51 + z_54 + z_61 + z_70 + z_71 + z_81 + z_85 + z_90 + z_95
   + z_100 + z_111 + z_112 + z_122 + z_126 + z_145 + z_177 + z_178 + z_188
   + z_192 + z_194 + z_232 + z_233 + z_236 + z_246 + z_251 + z_258 + z_264
   + z_267 + z_273 + z_341 + z_366 = 1
 truck_fleet_ub: z_0 + z_1 + z_2 + z_3 + z_4 + z_5 + z_6 + z_7 + z_8 + z_9
   + z_10 + z_11 + z_12 + z_13 + z_14 + z_15 + z_16 + z_17 + z_18 + z_19
   + z_20 + z_21 + z_22 + z_23 + z_24 + z_25 + z_26 + z_27 + z_28 + z_29
   + z_30 + z_31 + z_32 + z_33 + z_34 + z_35 + z_36 + z_37 + z_38 + z_39
   + z_40 + z_41 + z_42 + z_43 + z_44 + z_45 + z_46 + z_47 + z_48 + z_49
   + z_50 + z_51 + z_52 + z_53 + z_54 + z_55 + z_56 + z_57 + z_58 + z_59
   + z_60 + z_61 + z_62 + z_63 + z_64 + z_65 + z_66 + z_67 + z_68 + z_69
   + z_70 + z_71 + z_72 + z_73 + z_74 + z_75 + z_76 + z_77 + z_78 + z_79
   + z_80 + z_81 + z_82 + z_83 + z_84 + z_85 + z_86 + z_87 + z_88 + z_89
   + z_90 + z_91 + z_92 + z_93 + z_94 + z_95 + z_96 + z_97 + z_98 + z_99
   + z_100 + z_101 + z_102 + z_103 + z_104 + z_105 + z_106 + z_107 + z_108
   + z_109 + z_110 + z_111 + z_112 + z_113 + z_114 + z_115 + z_116 + z_117
   + z_118 + z_119 + z_120 + z_121 + z_122 + z_123 + z_124 + z_125 + z_126
   + z_127 + z_128 + z_129 + z_130 + z_131 + z_132 + z_133 + z_134 + z_135
   + z_136 + z_137 + z_138 + z_139 + z_140 + z_141 + z_142 + z_143 + z_144
   + z_145 + z_146 + z_151 + z_154 + z_157 + z_160 + z_162 + z_171 + z_172
   + z_173 + z_177 + z_178 + z_188 + z_189 + z_192 + z_194 + z_221 + z_231
   + z_232 + z_233 + z_236 + z_242 + z_244 + z_246 + z_247 + z_248 + z_249
   + z_250 + z_251 + z_257 + z_258 + z_261 + z_264 + z_267 + z_273 + z_287
   + z_294 + z_295 + z_341 + z_366 + z_421 <= 8
 truck_fleet_lb: z_0 + z_1 + z_2 + z_3 + z_4 + z_5 + z_6 + z_7 + z_8 + z_9
   + z_10 + z_11 + z_12 + z_13 + z_14 + z_15 + z_16 + z_17 + z_18 + z_19
   + z_20 + z_21 + z_22 + z_23 + z_24 + z_25 + z_26 + z_27 + z_28 + z_29
   + z_30 + z_31 + z_32 + z_33 + z_34 + z_35 + z_36 + z_37 + z_38 + z_39
   + z_40 + z_41 + z_42 + z_43 + z_44 + z_45 + z_46 + z_47 + z_48 + z_49
   + z_50 + z_51 + z_52 + z_53 + z_54 + z_55 + z_56 + z_57 + z_58 + z_59
   + z_60 + z_61 + z_62 + z_63 + z_64 + z_65 + z_66 + z_67 + z_68 + z_69
   + z_70 + z_71 + z_72 + z_73 + z_74 + z_75 + z_76 + z_77 + z_78 + z_79
   + z_80 + z_81 + z_82 + z_83 + z_84 + z_85 + z_86 + z_87 + z_88 + z_89
   + z_90 + z_91 + z_92 + z_93 + z_94 + z_95 + z_96 + z_97 + z_98 + z_99
   + z_100 + z_101 + z_102 + z_103 + z_104 + z_105 + z_106 + z_107 + z_108
   + z_109 + z_110 + z_111 + z_112 + z_113 + z_114 + z_115 + z_116 + z_117
   + z_118 + z_119 + z_120 + z_121 + z_122 + z_123 + z_124 + z_125 + z_126
   + z_127 + z_128 + z_129 + z_130 + z_131 + z_132 + z_133 + z_134 + z_135
   + z_136 + z_137 + z_138 + z_139 + z_140 + z_141 + z_142 + z_143 + z_144
   + z_145 + z_146 + z_151 + z_154 + z_157 + z_160 + z_162 + z_171 + z_172
   + z_173 + z_177 + z_178 + z_188 + z_189 + z_192 + z_194 + z_221 + z_231
   + z_232 + z_233 + z_236 + z_242 + z_244 + z_246 + z_247 + z_248 + z_249
   + z_250 + z_251 + z_257 + z_258 + z_261 + z_264 + z_267 + z_273 + z_287
   + z_294 + z_295 + z_341 + z_366 + z_421 >= 8
Bounds
End
