\ Model RMP
\ LP format - for model browsing. Use MPS format to capture full model detail.
Minimize
  1683 z_0 + 476 z_1 + 2279 z_2 + 909 z_3 + 525 z_4 + 1376 z_5 + 725 z_6
   + 2016 z_7 + 663 z_8 + 2582 z_9 + 1772 z_10 + 1092 z_11 + 1371 z_12
   + 1909 z_13 + 2468 z_14 + 4182 z_15 + 10470 z_16 + 24657 z_17
   + 22152 z_18 + 10285 z_19 + 20123 z_20 + 21092 z_21 + 24743 z_22
   + 8296 z_23 + 9627 z_24 + 19671 z_25 + 39297 z_26 + 5650 z_27
   + 39770 z_28 + 17595 z_29 + 44001 z_30 + 42940 z_31 + 36570 z_32
   + 45892 z_33 + 78250 z_34 + 78681 z_35 + 123222 z_36 + 43490 z_37
   + 73094 z_38 + 119068 z_39 + 121138 z_40 + 179412 z_41 + 168247 z_42
   + 43571 z_43 + 167508 z_44 + 244477 z_45 + 83760 z_46 + 25562 z_47
   + 49912 z_48 + 133526 z_49 + 146318 z_50 + 90349 z_51 + 64920 z_52
   + 312954 z_53 + 36330 z_54 + 140553 z_55 + 200636 z_56 + 274071 z_57
   + 200612 z_58 + 290664 z_59 + 357632 z_60 + 23057 z_61 + 42401 z_62
   + 124229 z_63 + 86665 z_64 + 116808 z_65 + 173005 z_66 + 197735 z_67
   + 262780 z_68 + 34259 z_69 + 280159 z_70 + 370800 z_71 + 142517 z_72
   + 198681 z_73 + 267711 z_74 + 83075 z_75 + 169685 z_76 + 225882 z_77
   + 92836 z_78 + 23129 z_79 + 41106 z_80 + 141908 z_81 + 17164 z_82
   + 77913 z_83 + 68016 z_84 + 111733 z_85 + 8870 z_86 + 41890 z_87
   + 73752 z_88 + 120897 z_89 + 107229 z_90 + 34130 z_91 + 7347 z_92
   + 18642 z_93 + 37152 z_94 + 16591 z_95 + 36819 z_96 + 66687 z_97
   + 64711 z_98 + 69048 z_99 + 37076 z_100 + 56696 z_101 + 69949 z_102
   + 68894 z_103 + 89400 z_104 + 134818 z_105 + 57345 z_106 + 93572 z_107
   + 93818 z_108 + 24566 z_109 + 46791 z_110 + 63539 z_111 + 129299 z_112
   + 62170 z_113 + 63516 z_114 + 62555 z_115 + 102377 z_116 + 39381 z_117
   + 67319 z_118 + 13415 z_119 + 23236 z_120 + 11288 z_121 + 20538 z_122
   + 40866 z_123 + 71513 z_124 + 19492 z_125 + 36416 z_126 + 18583 z_127
   + 6696 z_128 + 16334 z_129 + 35758 z_130 + 35563 z_131 + 51732 z_132
   + 68073 z_133 + 49337 z_134 + 60446 z_135 + 6690 z_136 + 50409 z_137
   + 32373 z_138 + 37926 z_139 + 20170 z_140 + 40647 z_141 + 37873 z_142
   + 50872 z_143 + 18533 z_144 + 62584 z_145 + 60208 z_146 + 41501 z_147
   + 39788 z_148 + 42426 z_149 + 13441 z_150 + 13791 z_151 + 16704 z_152
   + 3819 z_153 + 82306 z_154 + 44573 z_155 + 64679 z_156 + 36926 z_157
   + 43592 z_158 + 69062 z_159 + 63816 z_160 + 62578 z_161 + 29849 z_162
   + 51832 z_163 + 34616 z_164 + 24620 z_165 + 32619 z_166 + 52786 z_167
   + 16442 z_168 + 31592 z_169 + 28555 z_170 + 17934 z_171 + 32196 z_172
   + 46377 z_173 + 48535 z_174 + 19129 z_175 + 14568 z_176 + 53789 z_177
   + 35037 z_178 + 23508 z_179 + 43163 z_180 + 29424 z_181 + 45566 z_182
   + 35263 z_183 + 34522 z_184 + 21586 z_185 + 35550 z_186 + 31752 z_187
   + 29856 z_188 + 28268 z_189 + 25999 z_190 + 22014 z_191 + 13447 z_192
   + 19072 z_193 + 24389 z_194 + 38560 z_195 + 16460 z_196 + 29459 z_197
   + 11769 z_198 + 14699 z_199 + 28549 z_200 + 8844 z_201 + 20983 z_202
   + 19670 z_203 + 6010 z_204 + 12896 z_205 + 10557 z_206 + 9975 z_207
   + 20197 z_208 + 26686 z_209 + 22260 z_210 + 25098 z_211 + 12414 z_212
   + 20971 z_213 + 11941 z_214 + 25417 z_215 + 22149 z_216 + 19040 z_217
   + 13099 z_218 + 17732 z_219 + 17934 z_220 + 14244 z_221 + 11924 z_222
   + 12671 z_223 + 6837 z_224 + 10966 z_225 + 22031 z_226 + 19815 z_227
   + 13147 z_228 + 14798 z_229 + 13574 z_230 + 8020 z_231 + 13369 z_232
   + 5523 z_233 + 14061 z_234 + 10584 z_235 + 11647 z_236 + 5741 z_237
   + 6855 z_238 + 7132 z_239 + 12584 z_240 + 4869 z_241 + 14201 z_242
   + 6202 z_243 + 1520 z_244 + 6345 z_245 + 4366 z_246 + 7054 z_247
   + 4923 z_248 + 8947 z_249 + 10402 z_250 + 4234 z_251 + 8169 z_252
   + 9183 z_253 + 4069 z_254 + 5065 z_255 + 9867 z_256 + 9428 z_257
   + 9437 z_258 + 3115 z_259 + 8601 z_260 + 4201 z_261 + 6812 z_262
   + 8623 z_263 + 6609 z_264 + 3414 z_265 + 7551 z_266 + 6671 z_267
   + 2977 z_268 + 6457 z_269 + 2408 z_270 + 6185 z_271 + 5675 z_272
   + 2790 z_273 + 5198 z_274 + 6256 z_275 + 4283 z_276 + 3060 z_277
   + 8947 z_278 + 8552 z_279 + 2366 z_280 + 2037 z_281 + 4627 z_282
   + 3107 z_283 + 2467 z_284 + 2947 z_285 + 2692 z_286 + 2561 z_287
   + 1806 z_288 + 842 z_289 + 6273 z_290 + 2535 z_291 + 1571 z_293
   + 3808 z_294 + 5683 z_295 + 2973 z_296 + 1751 z_298 + 1801 z_305
   + 2431 z_307 + 2176 z_308 + 2101 z_309 + 4199 z_311 + 2530 z_312
   + 2647 z_313 + 2706 z_314 + 2647 z_315 + 2376 z_316 + 2196 z_319
   + 2585 z_321 + 3721 z_322 + 2413 z_323 + 2473 z_324 + 2413 z_325
   + 4017 z_328 + 2426 z_329 + 2651 z_330 + 2706 z_331 + 2592 z_332
   + 2143 z_340 + 2355 z_344 + 2473 z_346 + 2369 z_355 + 2477 z_356
   + 2701 z_357 + 2763 z_360 + 2420 z_361 + 2309 z_362 + 2642 z_363
   + 2539 z_365 + 2251 z_367 + 2585 z_368 + 2360 z_370 + 2822 z_371
   + 2763 z_372 + 2704 z_373 + 732 z_374 + 1698 z_375 + 2468 z_376
   + 2087 z_378 + 2365 z_379 + 2482 z_382 + 2254 z_383 + 2530 z_384
   + 1518 z_385 + 2314 z_386 + 2309 z_387 + 2247 z_388 + 1462 z_389
   + 2420 z_391
Subject To
 visit_customer_0: z_0 + z_15 + z_16 + z_17 + z_18 + z_19 + z_20 + z_21
   + z_22 + z_23 + z_24 + z_25 + z_26 + z_27 + z_29 + z_30 + z_31 + z_32
   + z_33 + z_34 + z_35 + z_36 + z_37 + z_38 + z_39 + z_40 + z_41 + z_42
   + z_44 + z_45 + z_46 + z_47 + z_48 + z_49 + z_50 + z_51 + z_52 + z_53
   + z_54 + z_55 + z_56 + z_57 + z_58 + z_59 + z_60 + z_64 + z_67 + z_68
   + z_69 + z_70 + z_71 + z_72 + z_73 + z_74 + z_75 + z_76 + z_77 + z_78
   + z_79 + z_80 + z_81 + z_82 + z_83 + z_84 + z_85 + z_107 + z_108 + z_109
   + z_110 + z_111 + z_112 + z_113 + z_114 + z_115 + z_116 + z_117 + z_118
   + z_119 + z_120 + z_121 + z_122 + z_131 + z_132 + z_133 + z_134 + z_171
   + z_172 + z_173 + z_174 + z_178 + z_179 + z_180 + z_181 + z_182 + z_184
   + z_199 + z_207 + z_208 + z_211 + z_212 + z_217 + z_219 + z_226 + z_231
   + z_232 + z_234 + z_249 + z_252 + z_260 + z_261 + z_268 + z_269 + z_274
   + z_278 + z_374 + z_375 + z_382 + z_385 + z_388 + z_389 + z_391 = 1
 visit_customer_1: z_1 + z_39 + z_40 + z_41 + z_42 + z_44 + z_45 + z_51
   + z_53 + z_55 + z_57 + z_58 + z_60 + z_65 + z_66 + z_67 + z_68 + z_70
   + z_71 + z_73 + z_74 + z_76 + z_77 + z_78 + z_85 + z_90 + z_97 + z_100
   + z_101 + z_102 + z_111 + z_112 + z_119 + z_120 + z_131 + z_132 + z_133
   + z_134 + z_137 + z_142 + z_146 + z_154 + z_164 + z_169 + z_172 + z_173
   + z_176 + z_177 + z_178 + z_185 + z_186 + z_194 + z_195 + z_198 + z_208
   + z_209 + z_211 + z_220 + z_231 + z_232 + z_233 + z_235 + z_236 + z_244
   + z_245 + z_246 + z_247 + z_248 + z_250 + z_251 + z_253 + z_255 + z_256
   + z_257 + z_258 + z_281 + z_282 + z_308 + z_340 + z_356 + z_361 + z_365
   + z_370 + z_378 + z_379 = 1
 visit_customer_2: z_2 + z_19 + z_20 + z_22 + z_42 + z_46 + z_48 + z_49
   + z_50 + z_51 + z_53 + z_55 + z_56 + z_57 + z_58 + z_59 + z_60 + z_65
   + z_66 + z_68 + z_70 + z_71 + z_74 + z_75 + z_76 + z_77 + z_84 + z_85
   + z_94 + z_101 + z_102 + z_103 + z_108 + z_112 + z_115 + z_120 + z_130
   + z_135 + z_152 + z_154 + z_157 + z_166 + z_167 + z_173 + z_177 + z_187
   + z_190 + z_194 + z_195 + z_198 + z_201 + z_202 + z_203 + z_206 + z_210
   + z_213 + z_221 + z_228 + z_232 + z_235 + z_237 + z_244 + z_245 + z_246
   + z_247 + z_248 + z_250 + z_251 + z_253 + z_263 + z_313 + z_323 + z_360
   + z_373 + z_376 + z_383 + z_384 = 1
 visit_customer_3: z_3 + z_21 + z_22 + z_63 + z_71 + z_72 + z_73 + z_89
   + z_91 + z_98 + z_103 + z_109 + z_110 + z_112 + z_116 + z_125 + z_126
   + z_147 + z_149 + z_157 + z_159 + z_163 + z_164 + z_165 + z_175 + z_177
   + z_181 + z_182 + z_183 + z_188 + z_204 + z_205 + z_212 + z_217 + z_225
   + z_226 + z_227 + z_229 + z_239 + z_240 + z_242 + z_247 + z_254 + z_259
   + z_263 + z_264 + z_265 + z_266 + z_267 + z_271 + z_285 + z_314 + z_324
   + z_330 + z_355 + z_357 + z_360 + z_361 + z_371 + z_372 + z_386 = 1
 visit_customer_4: z_4 + z_32 + z_53 + z_55 + z_58 + z_59 + z_66 + z_70
   + z_71 + z_74 + z_77 + z_121 + z_122 + z_123 + z_145 + z_146 + z_163
   + z_170 + z_172 + z_173 + z_174 + z_189 + z_216 + z_219 + z_222 + z_230
   + z_243 + z_257 + z_262 + z_264 + z_268 + z_269 + z_270 + z_272 + z_273
   + z_275 + z_294 + z_296 + z_309 + z_371 = 1
 visit_customer_5: z_5 + z_50 + z_53 + z_64 + z_67 + z_68 + z_81 + z_83
   + z_105 + z_118 + z_155 + z_158 + z_180 + z_193 + z_253 + z_258 + z_276
   + z_278 + z_279 + z_287 + z_290 + z_315 + z_325 + z_328 + z_332 + z_362
   + z_363 + z_365 + z_370 + z_372 + z_373 + z_387 = 1
 visit_customer_6: z_6 + z_37 + z_38 + z_43 + z_87 + z_88 + z_89 + z_90
   + z_99 + z_113 + z_124 + z_139 + z_143 + z_159 + z_160 + z_167 + z_174
   + z_183 + z_197 + z_199 + z_214 + z_215 + z_216 + z_218 + z_250 + z_255
   + z_256 + z_257 + z_265 + z_266 + z_267 + z_277 + z_280 + z_286 + z_309
   + z_311 + z_322 + z_328 + z_344 + z_367 + z_368 + z_376 + z_387 = 1
 visit_customer_7: z_7 + z_23 + z_44 + z_45 + z_60 + z_74 + z_75 + z_76
   + z_77 + z_79 + z_80 + z_81 + z_84 + z_85 + z_107 + z_108 + z_111
   + z_112 + z_115 + z_128 + z_129 + z_132 + z_133 + z_134 + z_135 + z_137
   + z_138 + z_143 + z_148 + z_150 + z_156 + z_160 + z_161 + z_162 + z_166
   + z_167 + z_171 + z_174 + z_178 + z_179 + z_180 + z_182 + z_184 + z_186
   + z_190 + z_191 + z_193 + z_196 + z_197 + z_199 + z_200 + z_202 + z_210
   + z_218 + z_221 + z_226 + z_227 + z_234 + z_236 + z_238 + z_240 + z_242
   + z_248 + z_250 + z_255 + z_256 + z_257 + z_258 + z_267 + z_271 + z_272
   + z_281 + z_282 + z_285 + z_286 + z_331 + z_346 + z_379 + z_384 + z_391
   = 1
 visit_customer_8: z_8 + z_104 + z_105 + z_106 + z_114 + z_116 + z_117
   + z_118 + z_154 + z_156 + z_161 + z_184 + z_195 + z_200 + z_203 + z_211
   + z_213 + z_223 + z_228 + z_234 + z_251 + z_253 + z_258 + z_271 + z_282
   + z_283 + z_284 + z_287 + z_290 + z_308 = 1
 visit_customer_9: z_9 + z_15 + z_16 + z_17 + z_18 + z_19 + z_20 + z_21
   + z_22 + z_23 + z_30 + z_33 + z_34 + z_35 + z_36 + z_37 + z_38 + z_39
   + z_40 + z_41 + z_42 + z_44 + z_45 + z_56 + z_57 + z_58 + z_59 + z_60
   + z_61 + z_62 + z_63 + z_65 + z_66 + z_70 + z_71 + z_72 + z_73 + z_74
   + z_76 + z_77 + z_78 + z_86 + z_87 + z_88 + z_89 + z_90 + z_91 + z_92
   + z_93 + z_94 + z_95 + z_96 + z_98 + z_102 + z_103 + z_104 + z_105
   + z_106 + z_107 + z_111 + z_112 + z_122 + z_123 + z_124 + z_125 + z_126
   + z_128 + z_129 + z_131 + z_132 + z_137 + z_138 + z_143 + z_150 + z_151
   + z_162 + z_163 + z_164 + z_165 + z_171 + z_172 + z_173 + z_174 + z_178
   + z_179 + z_180 + z_184 + z_185 + z_186 + z_187 + z_188 + z_189 + z_190
   + z_191 + z_193 + z_198 + z_199 + z_218 + z_231 + z_232 + z_234 + z_249
   + z_252 + z_269 + z_270 + z_272 + z_275 + z_277 + z_283 + z_288 + z_291
   + z_295 + z_298 + z_307 + z_311 + z_313 + z_314 + z_315 + z_316 + z_330
   + z_331 + z_332 + z_360 + z_365 + z_371 + z_372 + z_373 + z_375 + z_382
   = 1
 visit_customer_10: z_10 + z_16 + z_17 + z_18 + z_21 + z_25 + z_26 + z_28
   + z_30 + z_31 + z_32 + z_33 + z_34 + z_35 + z_36 + z_37 + z_38 + z_39
   + z_40 + z_41 + z_42 + z_43 + z_44 + z_45 + z_46 + z_49 + z_50 + z_52
   + z_53 + z_54 + z_56 + z_57 + z_59 + z_60 + z_61 + z_62 + z_63 + z_64
   + z_65 + z_66 + z_67 + z_68 + z_81 + z_86 + z_87 + z_88 + z_89 + z_90
   + z_91 + z_97 + z_98 + z_99 + z_100 + z_101 + z_124 + z_125 + z_126
   + z_127 + z_130 + z_131 + z_132 + z_133 + z_134 + z_135 + z_136 + z_137
   + z_138 + z_139 + z_140 + z_141 + z_142 + z_143 + z_144 + z_145 + z_146
   + z_147 + z_148 + z_149 + z_151 + z_152 + z_154 + z_155 + z_156 + z_157
   + z_158 + z_159 + z_160 + z_161 + z_163 + z_164 + z_165 + z_166 + z_167
   + z_168 + z_169 + z_170 + z_175 + z_176 + z_177 + z_183 + z_194 + z_195
   + z_196 + z_197 + z_200 + z_201 + z_202 + z_203 + z_204 + z_205 + z_222
   + z_225 + z_227 + z_240 + z_241 + z_245 + z_256 + z_262 + z_266 + z_273
   + z_279 + z_280 + z_288 + z_289 + z_291 + z_293 + z_295 + z_307 + z_311
   + z_313 + z_314 + z_315 + z_319 + z_321 + z_322 + z_323 + z_324 + z_325
   + z_328 + z_331 + z_340 + z_344 + z_346 + z_355 + z_361 + z_362 + z_367
   + z_370 + z_376 + z_382 + z_385 + z_388 + z_391 = 1
 visit_customer_11: z_11 + z_17 + z_26 + z_28 + z_29 + z_30 + z_31 + z_34
   + z_36 + z_39 + z_41 + z_43 + z_44 + z_45 + z_46 + z_49 + z_52 + z_53
   + z_56 + z_57 + z_59 + z_60 + z_61 + z_62 + z_63 + z_64 + z_65 + z_66
   + z_67 + z_68 + z_69 + z_72 + z_73 + z_78 + z_81 + z_88 + z_89 + z_96
   + z_97 + z_99 + z_100 + z_101 + z_104 + z_105 + z_107 + z_108 + z_110
   + z_113 + z_114 + z_116 + z_124 + z_126 + z_127 + z_129 + z_130 + z_135
   + z_139 + z_145 + z_146 + z_147 + z_148 + z_153 + z_154 + z_158 + z_159
   + z_160 + z_161 + z_171 + z_175 + z_177 + z_178 + z_179 + z_180 + z_181
   + z_182 + z_183 + z_184 + z_185 + z_186 + z_191 + z_192 + z_206 + z_209
   + z_210 + z_213 + z_214 + z_215 + z_216 + z_223 + z_254 + z_260 + z_284
   + z_291 + z_293 + z_295 + z_298 + z_312 + z_316 + z_319 + z_322 + z_323
   + z_324 + z_325 + z_328 + z_330 + z_332 + z_344 + z_346 + z_378 + z_379
   + z_383 + z_384 + z_386 + z_388 + z_389 = 1
 visit_customer_12: z_12 + z_18 + z_20 + z_30 + z_33 + z_34 + z_35 + z_36
   + z_37 + z_38 + z_39 + z_40 + z_41 + z_42 + z_44 + z_45 + z_47 + z_48
   + z_49 + z_50 + z_51 + z_52 + z_53 + z_54 + z_55 + z_56 + z_57 + z_58
   + z_59 + z_60 + z_62 + z_63 + z_65 + z_66 + z_69 + z_70 + z_71 + z_72
   + z_73 + z_74 + z_75 + z_76 + z_77 + z_78 + z_80 + z_82 + z_83 + z_84
   + z_85 + z_87 + z_88 + z_89 + z_90 + z_93 + z_94 + z_98 + z_102 + z_103
   + z_104 + z_105 + z_106 + z_107 + z_108 + z_113 + z_114 + z_115 + z_116
   + z_117 + z_118 + z_123 + z_124 + z_127 + z_130 + z_131 + z_132 + z_133
   + z_134 + z_135 + z_136 + z_137 + z_138 + z_139 + z_140 + z_141 + z_142
   + z_143 + z_144 + z_149 + z_150 + z_152 + z_153 + z_155 + z_156 + z_157
   + z_162 + z_166 + z_167 + z_178 + z_179 + z_180 + z_181 + z_182 + z_184
   + z_185 + z_186 + z_190 + z_191 + z_192 + z_206 + z_207 + z_208 + z_209
   + z_210 + z_213 + z_214 + z_215 + z_216 + z_217 + z_219 + z_220 + z_221
   + z_223 + z_228 + z_237 + z_246 + z_252 + z_260 + z_261 + z_296 + z_305
   + z_312 + z_321 + z_329 + z_356 + z_357 + z_363 + z_368 = 1
 visit_customer_13: z_13 + z_24 + z_25 + z_26 + z_28 + z_32 + z_33 + z_34
   + z_35 + z_36 + z_38 + z_39 + z_40 + z_41 + z_42 + z_43 + z_44 + z_45
   + z_47 + z_48 + z_50 + z_51 + z_52 + z_53 + z_54 + z_55 + z_58 + z_63
   + z_67 + z_68 + z_70 + z_71 + z_72 + z_73 + z_74 + z_75 + z_76 + z_77
   + z_79 + z_80 + z_83 + z_84 + z_85 + z_90 + z_92 + z_93 + z_94 + z_95
   + z_96 + z_97 + z_99 + z_100 + z_101 + z_102 + z_103 + z_109 + z_110
   + z_111 + z_112 + z_123 + z_140 + z_141 + z_142 + z_144 + z_145 + z_146
   + z_147 + z_148 + z_149 + z_151 + z_154 + z_155 + z_156 + z_158 + z_159
   + z_160 + z_161 + z_162 + z_165 + z_168 + z_169 + z_170 + z_176 + z_187
   + z_188 + z_189 + z_192 + z_194 + z_195 + z_196 + z_197 + z_200 + z_209
   + z_215 + z_220 + z_222 + z_224 + z_225 + z_227 + z_229 + z_230 + z_233
   + z_235 + z_236 + z_238 + z_241 + z_249 + z_274 + z_275 + z_276 + z_278
   + z_279 + z_290 + z_295 + z_305 + z_312 + z_321 + z_329 + z_356 + z_357
   + z_363 + z_368 = 1
 visit_customer_14: z_14 + z_27 + z_28 + z_29 + z_31 + z_35 + z_36 + z_40
   + z_41 + z_42 + z_45 + z_46 + z_49 + z_56 + z_57 + z_59 + z_60 + z_64
   + z_67 + z_68 + z_69 + z_70 + z_71 + z_72 + z_73 + z_78 + z_81 + z_82
   + z_83 + z_91 + z_95 + z_96 + z_97 + z_98 + z_99 + z_104 + z_105 + z_106
   + z_107 + z_108 + z_113 + z_114 + z_115 + z_116 + z_117 + z_118 + z_119
   + z_120 + z_121 + z_122 + z_133 + z_141 + z_145 + z_163 + z_168 + z_169
   + z_170 + z_172 + z_173 + z_174 + z_181 + z_182 + z_187 + z_188 + z_189
   + z_205 + z_207 + z_208 + z_211 + z_212 + z_217 + z_219 + z_224 + z_226
   + z_229 + z_230 + z_239 + z_242 + z_243 + z_259 + z_263 + z_264 + z_294
   + z_307 + z_311 + z_316 + z_319 + z_322 + z_329 + z_340 + z_355 + z_362
   + z_367 + z_378 + z_383 + z_386 + z_387 = 1
 truck_fleet_ub: z_0 + z_1 + z_2 + z_3 + z_4 + z_5 + z_6 + z_7 + z_8 + z_9
   + z_10 + z_11 + z_12 + z_13 + z_14 + z_15 + z_16 + z_17 + z_18 + z_19
   + z_20 + z_21 + z_22 + z_23 + z_24 + z_25 + z_26 + z_27 + z_28 + z_29
   + z_30 + z_31 + z_32 + z_33 + z_34 + z_35 + z_36 + z_37 + z_38 + z_39
   + z_40 + z_41 + z_42 + z_43 + z_44 + z_45 + z_46 + z_47 + z_48 + z_49
   + z_50 + z_51 + z_52 + z_53 + z_54 + z_55 + z_56 + z_57 + z_58 + z_59
   + z_60 + z_61 + z_62 + z_63 + z_64 + z_65 + z_66 + z_67 + z_68 + z_69
   + z_70 + z_71 + z_72 + z_73 + z_74 + z_75 + z_76 + z_77 + z_78 + z_79
   + z_80 + z_81 + z_82 + z_83 + z_84 + z_85 + z_86 + z_87 + z_88 + z_89
   + z_90 + z_91 + z_92 + z_93 + z_94 + z_95 + z_96 + z_97 + z_98 + z_99
   + z_100 + z_101 + z_102 + z_103 + z_104 + z_105 + z_106 + z_107 + z_108
   + z_109 + z_110 + z_111 + z_112 + z_113 + z_114 + z_115 + z_116 + z_117
   + z_118 + z_119 + z_120 + z_121 + z_122 + z_123 + z_124 + z_125 + z_126
   + z_127 + z_128 + z_129 + z_130 + z_131 + z_132 + z_133 + z_134 + z_135
   + z_136 + z_137 + z_138 + z_139 + z_140 + z_141 + z_142 + z_143 + z_144
   + z_145 + z_146 + z_147 + z_148 + z_149 + z_150 + z_151 + z_152 + z_153
   + z_154 + z_155 + z_156 + z_157 + z_158 + z_159 + z_160 + z_161 + z_162
   + z_163 + z_164 + z_165 + z_166 + z_167 + z_168 + z_169 + z_170 + z_171
   + z_172 + z_173 + z_174 + z_175 + z_176 + z_177 + z_178 + z_179 + z_180
   + z_181 + z_182 + z_183 + z_184 + z_185 + z_186 + z_187 + z_188 + z_189
   + z_190 + z_191 + z_192 + z_193 + z_194 + z_195 + z_196 + z_197 + z_198
   + z_199 + z_200 + z_201 + z_202 + z_203 + z_204 + z_205 + z_206 + z_207
   + z_208 + z_209 + z_210 + z_211 + z_212 + z_213 + z_214 + z_215 + z_216
   + z_217 + z_218 + z_219 + z_220 + z_221 + z_222 + z_223 + z_224 + z_225
   + z_226 + z_227 + z_228 + z_229 + z_230 + z_231 + z_232 + z_233 + z_234
   + z_235 + z_236 + z_237 + z_238 + z_239 + z_240 + z_241 + z_242 + z_243
   + z_244 + z_245 + z_246 + z_247 + z_248 + z_249 + z_250 + z_251 + z_252
   + z_253 + z_254 + z_255 + z_256 + z_257 + z_258 + z_259 + z_260 + z_261
   + z_262 + z_263 + z_264 + z_265 + z_266 + z_267 + z_268 + z_269 + z_270
   + z_271 + z_272 + z_273 + z_274 + z_275 + z_276 + z_277 + z_278 + z_279
   + z_280 + z_281 + z_282 + z_283 + z_284 + z_285 + z_286 + z_287 + z_288
   + z_289 + z_290 + z_291 + z_293 + z_294 + z_295 + z_296 + z_298 + z_305
   + z_307 + z_308 + z_309 + z_311 + z_312 + z_313 + z_314 + z_315 + z_316
   + z_319 + z_321 + z_322 + z_323 + z_324 + z_325 + z_328 + z_329 + z_330
   + z_331 + z_332 + z_340 + z_344 + z_346 + z_355 + z_356 + z_357 + z_360
   + z_361 + z_362 + z_363 + z_365 + z_367 + z_368 + z_370 + z_371 + z_372
   + z_373 + z_374 + z_375 + z_376 + z_378 + z_379 + z_382 + z_383 + z_384
   + z_385 + z_386 + z_387 + z_388 + z_389 + z_391 <= 7
 truck_fleet_lb: z_0 + z_1 + z_2 + z_3 + z_4 + z_5 + z_6 + z_7 + z_8 + z_9
   + z_10 + z_11 + z_12 + z_13 + z_14 + z_15 + z_16 + z_17 + z_18 + z_19
   + z_20 + z_21 + z_22 + z_23 + z_24 + z_25 + z_26 + z_27 + z_28 + z_29
   + z_30 + z_31 + z_32 + z_33 + z_34 + z_35 + z_36 + z_37 + z_38 + z_39
   + z_40 + z_41 + z_42 + z_43 + z_44 + z_45 + z_46 + z_47 + z_48 + z_49
   + z_50 + z_51 + z_52 + z_53 + z_54 + z_55 + z_56 + z_57 + z_58 + z_59
   + z_60 + z_61 + z_62 + z_63 + z_64 + z_65 + z_66 + z_67 + z_68 + z_69
   + z_70 + z_71 + z_72 + z_73 + z_74 + z_75 + z_76 + z_77 + z_78 + z_79
   + z_80 + z_81 + z_82 + z_83 + z_84 + z_85 + z_86 + z_87 + z_88 + z_89
   + z_90 + z_91 + z_92 + z_93 + z_94 + z_95 + z_96 + z_97 + z_98 + z_99
   + z_100 + z_101 + z_102 + z_103 + z_104 + z_105 + z_106 + z_107 + z_108
   + z_109 + z_110 + z_111 + z_112 + z_113 + z_114 + z_115 + z_116 + z_117
   + z_118 + z_119 + z_120 + z_121 + z_122 + z_123 + z_124 + z_125 + z_126
   + z_127 + z_128 + z_129 + z_130 + z_131 + z_132 + z_133 + z_134 + z_135
   + z_136 + z_137 + z_138 + z_139 + z_140 + z_141 + z_142 + z_143 + z_144
   + z_145 + z_146 + z_147 + z_148 + z_149 + z_150 + z_151 + z_152 + z_153
   + z_154 + z_155 + z_156 + z_157 + z_158 + z_159 + z_160 + z_161 + z_162
   + z_163 + z_164 + z_165 + z_166 + z_167 + z_168 + z_169 + z_170 + z_171
   + z_172 + z_173 + z_174 + z_175 + z_176 + z_177 + z_178 + z_179 + z_180
   + z_181 + z_182 + z_183 + z_184 + z_185 + z_186 + z_187 + z_188 + z_189
   + z_190 + z_191 + z_192 + z_193 + z_194 + z_195 + z_196 + z_197 + z_198
   + z_199 + z_200 + z_201 + z_202 + z_203 + z_204 + z_205 + z_206 + z_207
   + z_208 + z_209 + z_210 + z_211 + z_212 + z_213 + z_214 + z_215 + z_216
   + z_217 + z_218 + z_219 + z_220 + z_221 + z_222 + z_223 + z_224 + z_225
   + z_226 + z_227 + z_228 + z_229 + z_230 + z_231 + z_232 + z_233 + z_234
   + z_235 + z_236 + z_237 + z_238 + z_239 + z_240 + z_241 + z_242 + z_243
   + z_244 + z_245 + z_246 + z_247 + z_248 + z_249 + z_250 + z_251 + z_252
   + z_253 + z_254 + z_255 + z_256 + z_257 + z_258 + z_259 + z_260 + z_261
   + z_262 + z_263 + z_264 + z_265 + z_266 + z_267 + z_268 + z_269 + z_270
   + z_271 + z_272 + z_273 + z_274 + z_275 + z_276 + z_277 + z_278 + z_279
   + z_280 + z_281 + z_282 + z_283 + z_284 + z_285 + z_286 + z_287 + z_288
   + z_289 + z_290 + z_291 + z_293 + z_294 + z_295 + z_296 + z_298 + z_305
   + z_307 + z_308 + z_309 + z_311 + z_312 + z_313 + z_314 + z_315 + z_316
   + z_319 + z_321 + z_322 + z_323 + z_324 + z_325 + z_328 + z_329 + z_330
   + z_331 + z_332 + z_340 + z_344 + z_346 + z_355 + z_356 + z_357 + z_360
   + z_361 + z_362 + z_363 + z_365 + z_367 + z_368 + z_370 + z_371 + z_372
   + z_373 + z_374 + z_375 + z_376 + z_378 + z_379 + z_382 + z_383 + z_384
   + z_385 + z_386 + z_387 + z_388 + z_389 + z_391 >= 0
 SR_('C1',_'C2',_'C10'): z_15 + z_16 + z_17 + z_18 + z_19 + z_20 + z_21
   + z_22 + z_23 + z_30 + z_33 + z_34 + z_35 + z_36 + z_37 + z_38 + z_39
   + z_40 + z_41 + z_42 + z_44 + z_45 + z_51 + z_53 + z_55 + z_56 + z_57
   + z_58 + z_59 + z_60 + z_65 + z_66 + z_67 + z_68 + z_70 + z_71 + z_72
   + z_73 + z_74 + z_76 + z_77 + z_78 + z_85 + z_90 + z_102 + z_107 + z_111
   + z_112 + z_119 + z_120 + z_122 + z_131 + z_132 + z_133 + z_134 + z_137
   + z_164 + z_171 + z_172 + z_173 + z_174 + z_178 + z_179 + z_180 + z_184
   + z_185 + z_186 + z_198 + z_199 + z_208 + z_211 + z_231 + z_232 + z_234
   + z_249 + z_252 + z_269 <= 1
 SR_('C1',_'C3',_'C10'): z_15 + z_16 + z_17 + z_18 + z_19 + z_20 + z_21
   + z_22 + z_23 + z_30 + z_33 + z_34 + z_35 + z_36 + z_37 + z_38 + z_39
   + z_40 + z_41 + z_42 + z_44 + z_45 + z_46 + z_48 + z_49 + z_50 + z_51
   + z_53 + z_55 + z_56 + z_57 + z_58 + z_59 + z_60 + z_65 + z_66 + z_68
   + z_70 + z_71 + z_72 + z_73 + z_74 + z_75 + z_76 + z_77 + z_78 + z_84
   + z_85 + z_94 + z_102 + z_103 + z_107 + z_108 + z_111 + z_112 + z_115
   + z_120 + z_122 + z_131 + z_132 + z_171 + z_172 + z_173 + z_174 + z_178
   + z_179 + z_180 + z_184 + z_187 + z_190 + z_198 + z_199 + z_231 + z_232
   + z_234 + z_249 + z_252 + z_269 <= 1
 SR_('C1',_'C4',_'C10'): z_15 + z_16 + z_17 + z_18 + z_19 + z_20 + z_21
   + z_22 + z_23 + z_30 + z_33 + z_34 + z_35 + z_36 + z_37 + z_38 + z_39
   + z_40 + z_41 + z_42 + z_44 + z_45 + z_56 + z_57 + z_58 + z_59 + z_60
   + z_63 + z_70 + z_71 + z_72 + z_73 + z_74 + z_76 + z_77 + z_78 + z_89
   + z_91 + z_98 + z_103 + z_107 + z_109 + z_110 + z_111 + z_112 + z_116
   + z_122 + z_125 + z_126 + z_131 + z_132 + z_163 + z_164 + z_165 + z_171
   + z_172 + z_173 + z_174 + z_178 + z_179 + z_180 + z_181 + z_182 + z_184
   + z_188 + z_199 + z_212 + z_217 + z_226 + z_231 + z_232 + z_234 + z_249
   + z_252 + z_269 <= 1
 SR_('C1',_'C5',_'C10'): z_15 + z_16 + z_17 + z_18 + z_19 + z_20 + z_21
   + z_22 + z_23 + z_30 + z_32 + z_33 + z_34 + z_35 + z_36 + z_37 + z_38
   + z_39 + z_40 + z_41 + z_42 + z_44 + z_45 + z_53 + z_55 + z_56 + z_57
   + z_58 + z_59 + z_60 + z_66 + z_70 + z_71 + z_72 + z_73 + z_74 + z_76
   + z_77 + z_78 + z_107 + z_111 + z_112 + z_121 + z_122 + z_123 + z_131
   + z_132 + z_163 + z_171 + z_172 + z_173 + z_174 + z_178 + z_179 + z_180
   + z_184 + z_189 + z_199 + z_219 + z_231 + z_232 + z_234 + z_249 + z_252
   + z_268 + z_269 + z_270 + z_272 + z_275 <= 1
 SR_('C1',_'C7',_'C10'): z_15 + z_16 + z_17 + z_18 + z_19 + z_20 + z_21
   + z_22 + z_23 + z_30 + z_33 + z_34 + z_35 + z_36 + z_37 + z_38 + z_39
   + z_40 + z_41 + z_42 + z_44 + z_45 + z_56 + z_57 + z_58 + z_59 + z_60
   + z_70 + z_71 + z_72 + z_73 + z_74 + z_76 + z_77 + z_78 + z_87 + z_88
   + z_89 + z_90 + z_107 + z_111 + z_112 + z_113 + z_122 + z_124 + z_131
   + z_132 + z_143 + z_171 + z_172 + z_173 + z_174 + z_178 + z_179 + z_180
   + z_184 + z_199 + z_218 + z_231 + z_232 + z_234 + z_249 + z_252 + z_269
   + z_277 <= 1
 SR_('C1',_'C8',_'C10'): z_15 + z_16 + z_17 + z_18 + z_19 + z_20 + z_21
   + z_22 + z_23 + z_30 + z_33 + z_34 + z_35 + z_36 + z_37 + z_38 + z_39
   + z_40 + z_41 + z_42 + z_44 + z_45 + z_56 + z_57 + z_58 + z_59 + z_60
   + z_70 + z_71 + z_72 + z_73 + z_74 + z_75 + z_76 + z_77 + z_78 + z_79
   + z_80 + z_81 + z_84 + z_85 + z_107 + z_108 + z_111 + z_112 + z_115
   + z_122 + z_128 + z_129 + z_131 + z_132 + z_133 + z_134 + z_137 + z_138
   + z_143 + z_150 + z_162 + z_171 + z_172 + z_173 + z_174 + z_178 + z_179
   + z_180 + z_182 + z_184 + z_186 + z_190 + z_191 + z_193 + z_199 + z_218
   + z_226 + z_231 + z_232 + z_234 + z_249 + z_252 + z_269 + z_272 + z_391
   <= 1
 SR_('C1',_'C9',_'C10'): z_15 + z_16 + z_17 + z_18 + z_19 + z_20 + z_21
   + z_22 + z_23 + z_30 + z_33 + z_34 + z_35 + z_36 + z_37 + z_38 + z_39
   + z_40 + z_41 + z_42 + z_44 + z_45 + z_56 + z_57 + z_58 + z_59 + z_60
   + z_70 + z_71 + z_72 + z_73 + z_74 + z_76 + z_77 + z_78 + z_104 + z_105
   + z_106 + z_107 + z_111 + z_112 + z_114 + z_116 + z_117 + z_118 + z_122
   + z_131 + z_132 + z_171 + z_172 + z_173 + z_174 + z_178 + z_179 + z_180
   + z_184 + z_199 + z_211 + z_231 + z_232 + z_234 + z_249 + z_252 + z_269
   + z_283 <= 1
 SR_('C1',_'C10',_'C11'): z_15 + z_16 + z_17 + z_18 + z_19 + z_20 + z_21
   + z_22 + z_23 + z_25 + z_26 + z_30 + z_31 + z_32 + z_33 + z_34 + z_35
   + z_36 + z_37 + z_38 + z_39 + z_40 + z_41 + z_42 + z_44 + z_45 + z_46
   + z_49 + z_50 + z_52 + z_53 + z_54 + z_56 + z_57 + z_58 + z_59 + z_60
   + z_61 + z_62 + z_63 + z_64 + z_65 + z_66 + z_67 + z_68 + z_70 + z_71
   + z_72 + z_73 + z_74 + z_76 + z_77 + z_78 + z_81 + z_86 + z_87 + z_88
   + z_89 + z_90 + z_91 + z_98 + z_107 + z_111 + z_112 + z_122 + z_124
   + z_125 + z_126 + z_131 + z_132 + z_133 + z_134 + z_137 + z_138 + z_143
   + z_151 + z_163 + z_164 + z_165 + z_171 + z_172 + z_173 + z_174 + z_178
   + z_179 + z_180 + z_184 + z_199 + z_231 + z_232 + z_234 + z_249 + z_252
   + z_269 + z_385 + z_388 + z_391 <= 1
 SR_('C1',_'C10',_'C12'): z_15 + z_16 + z_17 + z_18 + z_19 + z_20 + z_21
   + z_22 + z_23 + z_26 + z_29 + z_30 + z_31 + z_33 + z_34 + z_35 + z_36
   + z_37 + z_38 + z_39 + z_40 + z_41 + z_42 + z_44 + z_45 + z_46 + z_49
   + z_52 + z_53 + z_56 + z_57 + z_58 + z_59 + z_60 + z_61 + z_62 + z_63
   + z_64 + z_65 + z_66 + z_67 + z_68 + z_69 + z_70 + z_71 + z_72 + z_73
   + z_74 + z_76 + z_77 + z_78 + z_81 + z_88 + z_89 + z_96 + z_104 + z_105
   + z_107 + z_108 + z_110 + z_111 + z_112 + z_113 + z_114 + z_116 + z_122
   + z_124 + z_126 + z_129 + z_131 + z_132 + z_171 + z_172 + z_173 + z_174
   + z_178 + z_179 + z_180 + z_181 + z_182 + z_184 + z_185 + z_186 + z_191
   + z_199 + z_231 + z_232 + z_234 + z_249 + z_252 + z_260 + z_269 + z_388
   + z_389 <= 1
 SR_('C1',_'C10',_'C15'): z_15 + z_16 + z_17 + z_18 + z_19 + z_20 + z_21
   + z_22 + z_23 + z_27 + z_29 + z_30 + z_31 + z_33 + z_34 + z_35 + z_36
   + z_37 + z_38 + z_39 + z_40 + z_41 + z_42 + z_44 + z_45 + z_46 + z_49
   + z_56 + z_57 + z_58 + z_59 + z_60 + z_64 + z_67 + z_68 + z_69 + z_70
   + z_71 + z_72 + z_73 + z_74 + z_76 + z_77 + z_78 + z_81 + z_82 + z_83
   + z_91 + z_95 + z_96 + z_98 + z_104 + z_105 + z_106 + z_107 + z_108
   + z_111 + z_112 + z_113 + z_114 + z_115 + z_116 + z_117 + z_118 + z_119
   + z_120 + z_121 + z_122 + z_131 + z_132 + z_133 + z_163 + z_171 + z_172
   + z_173 + z_174 + z_178 + z_179 + z_180 + z_181 + z_182 + z_184 + z_187
   + z_188 + z_189 + z_199 + z_207 + z_208 + z_211 + z_212 + z_217 + z_219
   + z_226 + z_231 + z_232 + z_234 + z_249 + z_252 + z_269 <= 1
Bounds
End
