\ Model RMP
\ LP format - for model browsing. Use MPS format to capture full model detail.
Minimize
  1681 z_0 + 494 z_1 + 2292 z_2 + 913 z_3 + 555 z_4 + 1355 z_5 + 731 z_6
   + 2024 z_7 + 7332 z_8 + 3447 z_9 + 4288 z_10 + 19033 z_11 + 27307 z_12
   + 9063 z_13 + 22998 z_14 + 23265 z_15 + 8780 z_16 + 15042 z_17
   + 6065 z_18 + 26259 z_19 + 19115 z_20 + 16697 z_21 + 16506 z_22
   + 6756 z_23 + 13332 z_24 + 9252 z_25 + 8350 z_26 + 5576 z_27 + 9086 z_28
   + 9045 z_29 + 8750 z_30 + 5292 z_31 + 3847 z_32 + 5175 z_33 + 2872 z_34
   + 2399 z_35 + 5445 z_36 + 3680 z_37 + 2430 z_38 + 2968 z_39 + 2887 z_71
   + 5010 z_72 + 93 z_101 + 1087 z_41 + 3719 z_106 + 2177 z_107
   + 4912 z_108 + 2961 z_109 + 1871 z_89 + 1153 z_110 + 1937 z_111
   + 4672 z_112 + 843 z_100 + 5696 z_113 + 4503 z_114 + 3083 z_115
Subject To
 visit_customer_0: z_0 + z_8 + z_10 + z_11 + z_12 + z_13 + z_14 + z_15
   + z_16 + z_17 + z_18 + z_19 + z_20 + z_21 + z_22 + z_23 + z_24 + z_41
   + z_106 + z_107 + z_108 + z_109 + z_89 + z_113 + z_114 = 1
 visit_customer_1: z_1 + z_8 + z_9 + z_11 + z_12 + z_13 + z_14 + z_15
   + z_17 + z_19 + z_25 + z_26 + z_27 + z_28 + z_29 + z_36 + z_37 + z_38
   = 1
 visit_customer_2: z_2 + z_9 + z_10 + z_11 + z_12 + z_13 + z_15 + z_16
   + z_17 + z_19 + z_25 + z_26 + z_28 + z_29 + z_30 + z_32 + z_34 + z_39
   = 1
 visit_customer_3: z_3 + z_18 + z_19 + z_20 + z_21 + z_22 + z_25 + z_29
   + z_30 + z_31 + z_32 + z_33 + z_106 + z_108 + z_112 + z_113 + z_114
   + z_115 = 1
 visit_customer_4: z_4 + z_12 + z_20 + z_24 + z_34 + z_35 + z_36 + z_71
   = 1
 visit_customer_5: z_5 + z_14 + z_15 + z_16 + z_17 + z_26 + z_27 + z_30
   + z_35 + z_36 + z_37 = 1
 visit_customer_6: z_6 + z_21 + z_28 + z_31 + z_38 + z_39 + z_71 + z_72
   + z_107 + z_108 + z_109 + z_110 + z_111 + z_112 + z_113 = 1
 visit_customer_7: z_7 + z_22 + z_23 + z_24 + z_33 + z_72 + z_109 + z_89
   + z_111 + z_112 + z_100 + z_113 + z_114 + z_115 = 1
 truck_fleet_ub: z_0 + z_1 + z_2 + z_3 + z_4 + z_5 + z_6 + z_7 + z_8 + z_9
   + z_10 + z_11 + z_12 + z_13 + z_14 + z_15 + z_16 + z_17 + z_18 + z_19
   + z_20 + z_21 + z_22 + z_23 + z_24 + z_25 + z_26 + z_27 + z_28 + z_29
   + z_30 + z_31 + z_32 + z_33 + z_34 + z_35 + z_36 + z_37 + z_38 + z_39
   + z_71 + z_72 + z_101 + z_41 + z_106 + z_107 + z_108 + z_109 + z_89
   + z_110 + z_111 + z_112 + z_100 + z_113 + z_114 + z_115 <= 4
 truck_fleet_lb: z_0 + z_1 + z_2 + z_3 + z_4 + z_5 + z_6 + z_7 + z_8 + z_9
   + z_10 + z_11 + z_12 + z_13 + z_14 + z_15 + z_16 + z_17 + z_18 + z_19
   + z_20 + z_21 + z_22 + z_23 + z_24 + z_25 + z_26 + z_27 + z_28 + z_29
   + z_30 + z_31 + z_32 + z_33 + z_34 + z_35 + z_36 + z_37 + z_38 + z_39
   + z_71 + z_72 + z_101 + z_41 + z_106 + z_107 + z_108 + z_109 + z_89
   + z_110 + z_111 + z_112 + z_100 + z_113 + z_114 + z_115 >= 0
Bounds
End
