\ Model RMP
\ LP format - for model browsing. Use MPS format to capture full model detail.
Minimize
  1681 z_0 + 494 z_1 + 2292 z_2 + 913 z_3 + 555 z_4 + 1355 z_5 + 731 z_6
   + 2024 z_7 + 7332 z_8 + 3447 z_9 + 4288 z_10 + 19033 z_11 + 27307 z_12
   + 9063 z_13 + 22998 z_14 + 23265 z_15 + 8780 z_16 + 15042 z_17
   + 6065 z_18 + 26259 z_19 + 19115 z_20 + 16697 z_21 + 16506 z_22
   + 6756 z_23 + 13332 z_24 + 9252 z_25 + 8350 z_26 + 5576 z_27 + 9086 z_28
   + 9045 z_29 + 8750 z_30 + 5292 z_31 + 3847 z_32 + 5175 z_33 + 2872 z_34
   + 2399 z_35 + 5445 z_36 + 3680 z_37 + 2430 z_38 + 2968 z_39 + 56 z_40
   + 1087 z_41 + 1816 z_42 + 2545 z_43 + 787 z_44 + 1516 z_45 + 5177 z_46
   + 2657 z_47 + 1816 z_48 + 787 z_49 + 2657 z_50 + 2840 z_51 + 2545 z_52
   + 2359 z_53 + 1630 z_54 + 2545 z_55 + 1928 z_56 + 2657 z_57 + 2600 z_58
   + 1630 z_59 + 2657 z_60 + 2359 z_61 + 901 z_62 + 1630 z_63 + 2712 z_64
   + 2359 z_65 + 2600 z_66 + 2301 z_67 + 4448 z_68 + 4448 z_69 + 3663 z_70
   + 2887 z_71 + 5010 z_72 + 2840 z_74 + 5472 z_75 + 5177 z_76 + 2545 z_77
   + 2600 z_78 + 2657 z_79 + 2952 z_81 + 2111 z_83 + 2840 z_84 + 2245 z_85
   + 2414 z_86 + 2414 z_87 + 1816 z_88 + 1871 z_89 + 2301 z_90 + 2414 z_91
   + 1516 z_92 + 2301 z_93 + 1572 z_94 + 1516 z_95 + 1572 z_96 + 1685 z_97
   + 787 z_98 + 1572 z_99 + 843 z_100 + 93 z_101 + 5472 z_102 + 5232 z_103
   + 1816 z_104 + 2545 z_105
Subject To
 visit_customer_0: z_0 + z_8 + z_10 + z_11 + z_12 + z_13 + z_14 + z_15
   + z_16 + z_17 + z_18 + z_19 + z_20 + z_21 + z_22 + z_23 + z_24 + z_102
   + z_103 = 1
 visit_customer_1: z_1 + z_8 + z_9 + z_11 + z_12 + z_13 + z_14 + z_15
   + z_17 + z_19 + z_25 + z_26 + z_27 + z_28 + z_29 + z_36 + z_37 + z_38
   + z_102 + z_104 + z_105 = 1
 visit_customer_2: z_2 + z_9 + z_10 + z_11 + z_12 + z_13 + z_15 + z_16
   + z_17 + z_19 + z_25 + z_26 + z_28 + z_29 + z_30 + z_32 + z_34 + z_39
   + z_103 = 1
 visit_customer_3: z_3 + z_18 + z_19 + z_20 + z_21 + z_22 + z_25 + z_29
   + z_30 + z_31 + z_32 + z_33 + z_46 + z_68 + z_69 + z_70 + z_75 + z_76
   + z_102 + z_103 = 1
 visit_customer_4: z_4 + z_12 + z_20 + z_24 + z_34 + z_35 + z_36 + z_71
   + z_102 + z_104 + z_105 = 1
 visit_customer_5: z_5 + z_14 + z_15 + z_16 + z_17 + z_26 + z_27 + z_30
   + z_35 + z_36 + z_37 + z_105 = 1
 visit_customer_6: z_6 + z_21 + z_28 + z_31 + z_38 + z_39 + z_71 + z_72
   = 1
 visit_customer_7: z_7 + z_22 + z_23 + z_24 + z_33 + z_72 + z_103 = 1
 truck_fleet_ub: z_0 + z_1 + z_2 + z_3 + z_4 + z_5 + z_6 + z_7 + z_8 + z_9
   + z_10 + z_11 + z_12 + z_13 + z_14 + z_15 + z_16 + z_17 + z_18 + z_19
   + z_20 + z_21 + z_22 + z_23 + z_24 + z_25 + z_26 + z_27 + z_28 + z_29
   + z_30 + z_31 + z_32 + z_33 + z_34 + z_35 + z_36 + z_37 + z_38 + z_39
   + z_40 + z_41 + z_42 + z_43 + z_44 + z_45 + z_46 + z_47 + z_48 + z_49
   + z_50 + z_51 + z_52 + z_53 + z_54 + z_55 + z_56 + z_57 + z_58 + z_59
   + z_60 + z_61 + z_62 + z_63 + z_64 + z_65 + z_66 + z_67 + z_68 + z_69
   + z_70 + z_71 + z_72 + z_74 + z_75 + z_76 + z_77 + z_78 + z_79 + z_81
   + z_83 + z_84 + z_85 + z_86 + z_87 + z_88 + z_89 + z_90 + z_91 + z_92
   + z_93 + z_94 + z_95 + z_96 + z_97 + z_98 + z_99 + z_100 + z_101 + z_102
   + z_103 + z_104 + z_105 <= 4
 truck_fleet_lb: z_0 + z_1 + z_2 + z_3 + z_4 + z_5 + z_6 + z_7 + z_8 + z_9
   + z_10 + z_11 + z_12 + z_13 + z_14 + z_15 + z_16 + z_17 + z_18 + z_19
   + z_20 + z_21 + z_22 + z_23 + z_24 + z_25 + z_26 + z_27 + z_28 + z_29
   + z_30 + z_31 + z_32 + z_33 + z_34 + z_35 + z_36 + z_37 + z_38 + z_39
   + z_40 + z_41 + z_42 + z_43 + z_44 + z_45 + z_46 + z_47 + z_48 + z_49
   + z_50 + z_51 + z_52 + z_53 + z_54 + z_55 + z_56 + z_57 + z_58 + z_59
   + z_60 + z_61 + z_62 + z_63 + z_64 + z_65 + z_66 + z_67 + z_68 + z_69
   + z_70 + z_71 + z_72 + z_74 + z_75 + z_76 + z_77 + z_78 + z_79 + z_81
   + z_83 + z_84 + z_85 + z_86 + z_87 + z_88 + z_89 + z_90 + z_91 + z_92
   + z_93 + z_94 + z_95 + z_96 + z_97 + z_98 + z_99 + z_100 + z_101 + z_102
   + z_103 + z_104 + z_105 >= 0
Bounds
End
